&CONTROL
  calculation = 'relax'    
  restart_mode ='restart' 
  prefix = 'Zn101_optimized_topsite_H2O'  
  outdir = './tmp'       
  pseudo_dir = '/home/ys/qepseudo/SSSP_1.3.0_PBE_efficiency' 
  tprnfor = .true.        
  tstress = .true.       
  verbosity = 'high'      
  etot_conv_thr = 1.0e-5  
  forc_conv_thr =  5.0e-4 
  max_seconds   =  1.72800e+05 
  nstep         = 100          
/

&SYSTEM
  ibrav = 0           
  nat = 67            
  ntyp = 3            
  ecutwfc = 30.0     
  ecutrho = 120.0    
  occupations = 'smearing'
  smearing = 'mv'     
  nosym = .TRUE.
  degauss = 0.02      
/

&ELECTRONS
  conv_thr = 7.35e-7        
  electron_maxstep = 200
  mixing_beta = 0.7   
  diagonalization = 'david'  
  startingwfc = "atomic+random"
  startingpot = "atomic"
/

&IONS
  ion_dynamics = 'bfgs' 
/

&CELL
  cell_dofree = 'all'   
/

ATOMIC_SPECIES
  Zn  65.38  Zn_pbe_v1.uspp.F.UPF  
  H  1.008   H.pbe-rrkjus_psl.1.0.0.UPF  
  O  16.000   O.pbe-n-kjpaw_psl.0.1.UPF   

CELL_PARAMETERS (angstrom) 
       11.0603027344         0.0000000000         0.0000000000
       -2.4718588623        10.1610999917         0.0000000000
      -46.4560228483       -11.3012106837        22.2132348689

ATOMIC_POSITIONS (angstrom)
Zn -1.0735556040 1.0841422490 1.1977635440  0 0 0
Zn -2.3094850350 6.1646922450 1.1977635440  0 0 0
Zn -5.3677775260 0.0395003770 3.2510723350  0 0 0
Zn -6.6037069570 5.1200503720 3.2510723350  0 0 0
Zn -9.4579920682 -0.9760995530 5.4086495552  1 1 1
Zn -10.7001593920 4.1083198224 5.3944327220  1 1 1
Zn -13.4180544427 -1.9386932627 7.6089168053  1 1 1
Zn -14.5703339550 3.1631188033 7.6032633572  1 1 1
Zn -1.6915203190 3.6244172470 1.1977635440  0 0 0
Zn -2.9274497510 8.7049672430 1.1977635440  0 0 0
Zn -5.9857422410 2.5797753750 3.2510723350  0 0 0
Zn -7.2216716720 7.6603253700 3.2510723350  0 0 0
Zn -10.0777183331 1.5651518341 5.3875022787  1 1 1
Zn -11.3170804812 6.6498139558 5.4008565029  1 1 1
Zn -14.0087488434 0.6120820665 7.6102662372  1 1 1
Zn -15.2249447266 5.6946797080 7.6029557189  1 1 1
Zn 4.4565957630 1.0841422490 1.1977635440  0 0 0
Zn 3.2206663320 6.1646922450 1.1977635440  0 0 0
Zn 0.1623738410 0.0395003770 3.2510723350  0 0 0
Zn -1.0735555900 5.1200503720 3.2510723350  0 0 0
Zn -3.9356051767 -0.9731420664 5.4793183740  1 1 1
Zn -5.2024938900 4.0886991061 5.5617704784  1 1 1
Zn -7.9889542096 -1.9558956495 7.6162446059  1 1 1
Zn -9.2613343408 3.1195560263 7.5822606146  1 1 1
Zn 3.8386310480 3.6244172470 1.1977635440  0 0 0
Zn 2.6027016170 8.7049672430 1.1977635440  0 0 0
Zn -0.4555908740 2.5797753750 3.2510723350  0 0 0
Zn -1.6915203050 7.6603253700 3.2510723350  0 0 0
Zn -4.5852790655 1.5653885911 5.5473583507  1 1 1
Zn -5.7874879314 6.6417690987 5.4874105130  1 1 1
Zn -8.6382524407 0.5811667693 7.5835363017  1 1 1
Zn -9.8469430791 5.6761826946 7.6208998847  1 1 1
Zn 1.6915203330 0.4114908770 0.8555452480  0 0 0
Zn 0.4555909020 5.4920408730 0.8555452480  0 0 0
Zn -2.6027015890 -0.6331509950 2.9088540390  0 0 0
Zn -3.8386310200 4.4473990010 2.9088540390  0 0 0
Zn -6.7361597713 -1.6465593548 4.9421226600  1 1 1
Zn -7.9680653153 3.4277016360 4.9428859545  1 1 1
Zn -10.7942548118 -2.6436155226 7.2661788516  1 1 1
Zn -12.0072015200 2.4287307723 7.2632938443  1 1 1
Zn 1.0735556170 2.9517658750 0.8555452480  0 0 0
Zn -0.1623738140 8.0323158710 0.8555452480  0 0 0
Zn -3.2206663040 1.9071240030 2.9088540390  0 0 0
Zn -4.4565957350 6.9876739990 2.9088540390  0 0 0
Zn -7.3495781395 0.8991146536 4.9406398223  1 1 1
Zn -8.5951850975 5.9776215329 4.9375601941  1 1 1
Zn -11.4249442990 -0.1123995702 7.2583226282  1 1 1
Zn -12.6165990643 4.9844257307 7.2719447655  1 1 1
Zn 7.2216717000 0.4114908770 0.8555452480  0 0 0
Zn 5.9857422690 5.4920408730 0.8555452480  0 0 0
Zn 2.9274497780 -0.6331509950 2.9088540390  0 0 0
Zn 1.6915203470 4.4473990010 2.9088540390  0 0 0
Zn -1.1996402935 -1.6501759527 4.9484615647  1 1 1
Zn -2.4486146632 3.4309398074 4.9480486470  1 1 1
Zn -5.3780375598 -2.6659133321 7.2170036781  1 1 1
Zn -6.6242252531 2.4095044370 7.3754990581  1 1 1
Zn 6.6037069850 2.9517658750 0.8555452480  0 0 0
Zn 5.3677775540 8.0323158710 0.8555452480  0 0 0
Zn 2.3094850630 1.9071240030 2.9088540390  0 0 0
Zn 1.0735556320 6.9876739990 2.9088540390  0 0 0
Zn -1.8264005902 0.8969383914 4.9520863546  1 1 1
Zn -3.0654724393 5.9663033865 4.9506719541  1 1 1
Zn -6.0268896524 -0.1473537949 7.1921185699  1 1 1
Zn -7.2951911050 4.9525919963 7.1608747227  1 1 1
O -6.1888121245 2.6312671054 9.7647217845 
H -6.8564470590 3.3087765254 10.0169666207 
H -6.5370131751 1.7918301551 10.1410874145 

K_POINTS automatic 
  2 2 1 0 0 0  

