&CONTROL
  calculation = 'relax'    
  restart_mode ='from_scratch' 
  prefix = '02_Zn101_ABN_topsite_upright'  
  outdir = './tmp'       
  pseudo_dir = '/home/yongsang/Research/PSID_server_room/qe/[00]QE/qepseudo/SSSP_1.3.0_PBE_efficiency' 
  tprnfor = .true.        
  tstress = .true.       
  verbosity = 'high'      
  etot_conv_thr = 1.0e-5  
  forc_conv_thr =  5.0e-4 
  max_seconds   =  1.72800e+06
  nstep         = 500          
/

&SYSTEM
  ibrav = 0           
  nat = 63       
  ntyp = 4
  ecutwfc = 40.0
  ecutrho = 280.0    
  occupations = 'smearing'
  smearing = 'mv'     
  nosym = .TRUE.
  degauss = 0.02      
  vdw_corr='grimme-d3'
/

&ELECTRONS
  conv_thr = 1e-6        
  electron_maxstep = 200
  mixing_beta = 0.4   
  diagonalization = 'david'  
  startingwfc = "atomic+random"
  startingpot = "atomic"
/

&IONS
  ion_dynamics = 'bfgs' 
/

&CELL
  cell_dofree = 'all'   
/

ATOMIC_SPECIES
  Zn  65.38  Zn_pbe_v1.uspp.F.UPF  
  N      14.00674  N.pbe-n-radius_5.UPF
  C      12.01070  C.pbe-n-kjpaw_psl.1.0.0.UPF
  H       1.00794  H.pbe-rrkjus_psl.1.0.0.UPF

CELL_PARAMETERS (angstrom) 
       11.0603027344         0.0000000000         0.0000000000
       -2.4718588623        10.1610999917         0.0000000000
      -46.4560228483       -11.3012106837        22.2132348689
        
ATOMIC_POSITIONS (angstrom)
Zn              -1.0735560000        1.0841420000        1.1977640000    0   0   0
Zn              -2.3094850000        6.1646920000        1.1977640000    0   0   0
Zn              -4.2337206355        0.3112341701        4.3479801628
Zn              -5.4652986170        5.3851320596        4.3470287042
Zn              -8.1625609117       -0.6648954355        5.8309757193
Zn              -9.4291906691        4.4079436410        5.6743091914
Zn              -1.6915200000        3.6244170000        1.1977640000    0   0   0
Zn              -2.9274500000        8.7049670000        1.1977640000    0   0   0
Zn              -4.8477800788        2.8474156215        4.3468796847
Zn              -6.0842632590        7.9337554725        4.3402511435
Zn              -8.7927032875        1.8708874012        5.8095992012
Zn             -10.0253791836        6.9573107277        5.7962147379
Zn               4.4565960000        1.0841420000        1.1977640000    0   0   0
Zn               3.2206660000        6.1646920000        1.1977640000    0   0   0
Zn               0.4085205601        0.0936896257        3.4796959810
Zn              -0.8242348027        5.1720997393        3.4843459680
Zn              -2.0882492704       -0.5155752718        5.6689926838
Zn              -3.3275337369        4.5698130176        5.6905444923
Zn               3.8386310000        3.6244170000        1.1977640000    0   0   0
Zn               2.6027020000        8.7049670000        1.1977640000    0   0   0
Zn              -0.2042090454        2.6342630751        3.4810544802
Zn              -1.4479612811        7.7080484761        3.4839536905
Zn              -2.7078956837        2.0262255409        5.6779725592
Zn              -3.9416051087        7.1092952753        5.6767157064
Zn               1.6915200000        0.4114910000        0.8555450000    0   0   0
Zn               0.4555910000        5.4920410000        0.8555450000    0   0   0
Zn              -2.2360347710       -0.5411486991        2.8683828439
Zn              -3.4687755503        4.5359858112        2.8792025824
Zn              -6.0588917287       -1.4803770774        4.4008081589
Zn              -7.2868297424        3.5903750809        4.3768830518
Zn               1.0735560000        2.9517660000        0.8555450000    0   0   0
Zn              -0.1623740000        8.0323160000        0.8555450000    0   0   0
Zn              -2.8447948680        1.9992614829        2.8803986402
Zn              -4.0951145266        7.0734276888        2.8685462996
Zn              -6.6815028051        1.0553497486        4.4009090187
Zn              -7.9045853925        6.1404651020        4.3802852078
Zn               7.2216720000        0.4114910000        0.8555450000    0   0   0
Zn               5.9857420000        5.4920410000        0.8555450000    0   0   0
Zn               2.9825905916       -0.6258236609        2.9284557462
Zn               1.7723916679        4.4605316185        2.8851654775
Zn               0.4069238591       -1.2469121766        5.8294142278
Zn              -0.8431067678        3.8296885120        5.8443330457
Zn               6.6037070000        2.9517660000        0.8555450000    0   0   0
Zn               5.3677780000        8.0323160000        0.8555450000    0   0   0
Zn               2.3719900992        1.9094197501        2.9201804121
Zn               1.1372118785        7.0004157838        2.9196910227
Zn              -0.2170548584        1.2937458560        5.8501807901
Zn              -1.4481201176        6.3719537907        5.8585673514
C              -10.8708483727        4.7600263224       14.3600171071
C              -10.5117103336        4.7151459784       12.9829123441
C              -10.6350612204        5.8605494040       12.1712460819
C              -10.0297734918        3.5229620071       12.4060322287
C              -10.2981442160        5.8143755946       10.8278959228
C               -9.6939850223        3.4764236455       11.0622741969
C               -9.8271586928        4.6188210371       10.2455332959
N              -11.1689157940        4.7916237800       15.4886545665
N               -9.4620322631        4.5825578481        8.9181936847
H               -9.4106415765        3.6750570107        8.4636744542
H               -9.8394589137        5.3016233962        8.3056687797
H               -9.9277737895        2.6307515045       13.0236898396
H              -11.0029782622        6.7879334039       12.6092970606
H               -9.3236917773        2.5479614307       10.6234102155
H              -10.3980311034        6.7080303552       10.2082653631

K_POINTS automatic 
  3 3 1  0 0 0  

