&CONTROL
  calculation = 'scf'    
  restart_mode = 'from_scratch' 
  prefix = 'Zn100_2x2x4_scf_H2O'  
  outdir = './tmp'       
  pseudo_dir = '/home/ys/qepseudo/SSSP_1.3.0_PBE_efficiency' 
  tprnfor = .true.        
  tstress = .true.       
  verbosity = 'high'      
  max_seconds   =  1.72800e+05 
/

&SYSTEM
  ibrav = 0           
  nat = 35            
  ntyp = 3            
  ecutwfc = 50.0     
  ecutrho = 200.0    
  occupations = 'smearing'
  smearing = 'mv'     
  degauss = 0.02      
  nosym = .TRUE.
/

&ELECTRONS
  conv_thr = 7.35e-7        
  electron_maxstep = 200
  mixing_beta = 0.7   
  diagonalization = 'david'  
  startingwfc = "atomic+random"
  startingpot = "atomic"
/

ATOMIC_SPECIES
  Zn  65.38  Zn_pbe_v1.uspp.F.UPF  
  H  1.008   H.pbe-rrkjus_psl.1.0.0.UPF  
  O  16.000   O.pbe-n-kjpaw_psl.0.1.UPF  

CELL_PARAMETERS (angstrom) 
    9.7463216782         0.0000000000         0.0000000000
    0.0000000000         5.2287197113         0.0000000000
    0.0000000000        -13.31162348          23.0564081985

ATOMIC_POSITIONS (angstrom)  
Zn               1.2182902100        1.3071799410        0.7547006760    0   0   0
Zn               1.2182902100        0.0000000130        3.0188027260    0   0   0
Zn               1.3093183212       -1.3111472092        5.6581956719
Zn               1.2587898217       -2.6242747013        8.2823915092
Zn               1.2182902100        3.9215397970        0.7547006760    0   0   0
Zn               1.2182902100        2.6143598690        3.0188027260    0   0   0
Zn               1.3034016176        1.3030821979        5.6432946878
Zn               1.2581151426       -0.0096702203        8.2925117631
Zn               6.0914510490        1.3071799410        0.7547006760    0   0   0
Zn               6.0914510490        0.0000000130        3.0188027260    0   0   0
Zn               6.1633272157       -1.3121312204        5.6449410104
Zn               6.1305020209       -2.6271373267        8.2412796162
Zn               6.0914510490        3.9215397970        0.7547006760    0   0   0
Zn               6.0914510490        2.6143598690        3.0188027260    0   0   0
Zn               6.1666773741        1.3010204800        5.6309526161
Zn               6.1295195276       -0.0125255529        8.2617034329
Zn               3.6548706290       -0.0000000130        1.5094013740    0   0   0
Zn               3.6548706290       -1.3071799410        3.7735034240    0   0   0
Zn               3.7493601915       -2.6292708346        6.0892999406
Zn               3.6804040043       -3.9426308884        8.5999114267
Zn               3.6548706290        2.6143598430        1.5094013740    0   0   0
Zn               3.6548706290        1.3071799150        3.7735034240    0   0   0
Zn               3.7491866987       -0.0002793515        6.0872964051
Zn               3.6856885635       -1.3217440243        8.4333235882
Zn               8.5280314680       -0.0000000130        1.5094013740    0   0   0
Zn               8.5280314680       -1.3071799410        3.7735034240    0   0   0
Zn               8.6246660016       -2.6182248774        6.0701813254
Zn               8.5669709284       -3.9303068481        8.4649596126
Zn               8.5280314680        2.6143598430        1.5094013740    0   0   0
Zn               8.5280314680        1.3071799150        3.7735034240    0   0   0
Zn               8.6285702563       -0.0028712537        6.0681572231
Zn               8.5649122257       -1.3154375870        8.4629765862
O                3.9137474293       -3.8532297388       11.1558137918
H                4.7545541559       -3.3435966857       11.1543597592
H                3.2392873688       -3.1948068906       11.4330298212

K_POINTS automatic 
  3 3 1  0 0 0  

