&CONTROL
  calculation = 'relax'    
  restart_mode = 'from_scratch' 
  prefix = 'Zn002_2x2x4_relax_ecutrho250_ecutwfc25_ABN'  
  outdir = './tmp'       
  pseudo_dir = '/home/ys/qepseudo/SSSP_1.3.0_PBE_efficiency' 
  tprnfor = .true.        
  tstress = .true.       
  verbosity = 'high'      
  etot_conv_thr = 1.0e-5  
  forc_conv_thr =  5.0e-4 

  max_seconds   =  1.72800e+05 
  nstep         = 100          
/

&SYSTEM
  ibrav = 0           
  nat = 47            
  ntyp = 4            
  ecutwfc = 30.0     
  ecutrho = 120.0    
  occupations = 'smearing'
  smearing = 'mv'     
  degauss = 0.02      
  nosym = .TRUE.
/

&ELECTRONS
  conv_thr = 7.35e-7        
  electron_maxstep = 200
  mixing_beta = 0.7   
  diagonalization = 'david'  
  startingwfc = "atomic+random"
  startingpot = "atomic"
/

&IONS
  ion_dynamics = 'bfgs' 
/

&CELL
  cell_dofree = 'all'   
/

ATOMIC_SPECIES
  Zn  65.38  Zn_pbe_v1.uspp.F.UPF  
  C  12.0107   C.pbe-n-kjpaw_psl.1.0.0.UPF  
  N  14.0067   N.pbe-n-radius_5.UPF  
  H  1.008   H.pbe-rrkjus_psl.1.0.0.UPF  

CELL_PARAMETERS (angstrom) 
        5.2287197113         0.0000000000         0.0000000000
       -5.2287197113         9.0564081985         0.0000000000
        0.0000000000         0.0000000000         23.7463216782

ATOMIC_POSITIONS (angstrom)  
Zn      -0.0000000130 1.5094013740 1.2182902100   0 0 0 
Zn      -0.0000015064 1.5142308346 6.2418183324   1 1 1  
Zn      -1.3071799410 3.7735034240 1.2182902100  0 0 0
Zn      -1.3071815187 3.7789693452 6.2422267090  1 1 1
Zn      -2.6143598690 6.0376054730 1.2182902100   0 0 0  
Zn      -2.6143596010 6.0427134194 6.2426429977   1 1 1  
Zn      -3.9215397970 8.3017075230 1.2182902100  0 0 0
Zn      -3.9215389747 8.3062360024 6.2424062806  1 1 1
Zn      2.6143598430 1.5094013740 1.2182902100   0 0 0 
Zn      2.6143626786 1.5142316129 6.2418208564   1 1 1
Zn      1.3071799150 3.7735034240 1.2182902100 0 0 0
Zn      1.3071821450 3.7789709445 6.2422244244 1 1 1
Zn      -0.0000000130 6.0376054730 1.2182902100   0 0 0  
Zn      0.0000008530 6.0427146528 6.2426401483    1 1 1 
Zn      -1.3071799410 8.3017075230 1.2182902100  0 0 0
Zn      -1.3071806390 8.3062372265 6.2424059394  1 1 1
Zn      1.3071799410 0.7547006760 3.6548706290   0 0 0 
Zn      1.3071793759 0.7442191393 8.8286621377   1 1 1
Zn      0.0000000130 3.0188027250 3.6548706290 0 0 0
Zn      0.0000005839 3.0089234186 8.8288802799 1 1 1
Zn      -1.3071799150 5.2829047750 3.6548706290   0 0 0  
Zn      -1.3071784451 5.2730370550 8.8260097737   1 1 1  
Zn      -2.6143598430 7.5470068250 3.6548706290  0 0 0
Zn      -2.6143595532 7.5365411093 8.8258033281  1 1 1
Zn      3.9215397970 0.7547006760 3.6548706290   0 0 0 
Zn      3.9215410180 0.7442188186 8.8286616024   1 1 1 
Zn      2.6143598690 3.0188027250 3.6548706290 0 0 0
Zn      2.6143602096 3.0089227841 8.8288845038 1 1 1
Zn      1.3071799410 5.2829047750 3.6548706290   0 0 0 
Zn      1.3071792906 5.2730365717 8.8260091880   1 1 1 
Zn      0.0000000130 7.5470068250 3.6548706290 0 0 0
Zn      0.0000005470 7.5365401002 8.8258027248   1 1 1              
C       1.3260305805      4.4824532340     17.7216250369                                  
C       1.3834555704      4.6699175374     16.3045238107                                  
C       2.0320288432      3.7301667238     15.4792421326                                  
C       0.7925707362      5.7984783690     15.7027977168                                  
C       0.8472180981      5.9819103120     14.3292678671                                  
C       2.0886723592      3.9102676396     14.1053522454                                  
C       1.4970201426      5.0413754965     13.4974711709                                  
N       1.2794785814      4.3300919637     18.8731567146                                  
N       1.5520498953      5.2205392939     12.1438854108                                  
H       1.1286144931      6.0272833380     11.7097677683                                  
H       2.0148045189      4.5484780925     11.5499295876                                  
H       2.4949245003      2.8501905237     15.9300998351                                  
H       0.3825804547      6.8642788976     13.8812810487                                  
H       2.5966183786      3.1696441842     13.4820431417                                  
H       0.2861584705      6.5360279090     16.3283868738     

K_POINTS automatic 
  3 3 1  0 0 0  

