&CONTROL
  calculation = 'relax'    
  restart_mode ='restart' 
  prefix = 'Zn002_optimized_topsite_H2O'  
  outdir = './tmp'       
  pseudo_dir = '/home/ys/qepseudo/SSSP_1.3.0_PBE_efficiency' 
  tprnfor = .true.        
  tstress = .true.       
  verbosity = 'high'      
  etot_conv_thr = 1.0e-5  
  forc_conv_thr =  5.0e-4 
  max_seconds   =  1.72800e+05 
  nstep         = 100          
/

&SYSTEM
  ibrav = 0           
  nat = 67            
  ntyp = 3            
  ecutwfc = 30.0     
  ecutrho = 120.0    
  occupations = 'smearing'
  smearing = 'mv'     
  nosym = .TRUE.
  degauss = 0.02      
/

&ELECTRONS
  conv_thr = 7.35e-7        
  electron_maxstep = 200
  mixing_beta = 0.7   
  diagonalization = 'david'  
  startingwfc = "atomic+random"
  startingpot = "atomic"
/

&IONS
  ion_dynamics = 'bfgs' 
/

&CELL
  cell_dofree = 'all'   
/

ATOMIC_SPECIES
  Zn  65.38  Zn_pbe_v1.uspp.F.UPF  
  O  16.000   O.pbe-n-kjpaw_psl.0.1.UPF  
  H  1.008   H.pbe-rrkjus_psl.1.0.0.UPF  

CELL_PARAMETERS (angstrom) 
       10.4574394226         0.0000000000         0.0000000000
       -5.2287197113         9.0564081985         0.0000000000
        0.0000000000         0.0000000000        23.7463226318

ATOMIC_POSITIONS (angstrom)
Zn              -0.0000000130        1.5094013740        1.2182902590    0   0   0
Zn               5.2287196980        1.5094013740        1.2182902590    0   0   0
Zn               0.0011120427        1.5098156786        6.1721139700    0   0   0
Zn               5.2276298567        1.5096812409        6.1878303447    0   0   0
Zn              -1.3071799410        3.7735034240        1.2182902590    0   0   0
Zn               3.9215397700        3.7735034240        1.2182902590    0   0   0
Zn              -1.3069300877        3.7744055475        6.1790147181    0   0   0
Zn               3.9211654507        3.7735432858        6.1841575930    0   0   0
Zn              -2.6143598690        6.0376054730        1.2182902590    0   0   0
Zn               2.6143598420        6.0376054730        1.2182902590    0   0   0
Zn              -2.6142664897        6.0378510255        6.1861027382    0   0   0
Zn               2.6141756116        6.0366437837        6.1776090524    0   0   0
Zn              -3.9215397970        8.3017075230        1.2182902590    0   0   0
Zn               1.3071799140        8.3017075230        1.2182902590    0   0   0
Zn              -3.9206627632        8.3013971165        6.1799331037    0   0   0
Zn               1.3061892394        8.3010083570        6.1815705960    0   0   0
Zn               2.6143598430        1.5094013740        1.2182902590    0   0   0
Zn               7.8430795540        1.5094013740        1.2182902590    0   0   0
Zn               2.6139064777        1.5091536489        6.1808539610    0   0   0
Zn               7.8434993133        1.5104311852        6.1795685079    0   0   0
Zn               1.3071799150        3.7735034240        1.2182902590    0   0   0
Zn               6.5358996260        3.7735034240        1.2182902590    0   0   0
Zn               1.3068490933        3.7733862370        6.1747897063    0   0   0
Zn               6.5361293872        3.7744930338        6.1877720625    0   0   0
Zn              -0.0000000130        6.0376054730        1.2182902590    0   0   0
Zn               5.2287196980        6.0376054730        1.2182902590    0   0   0
Zn              -0.0010277368        6.0371123597        6.1810339429    0   0   0
Zn               5.2296452053        6.0375740856        6.1834586640    0   0   0
Zn              -1.3071799410        8.3017075230        1.2182902590    0   0   0
Zn               3.9215397700        8.3017075230        1.2182902590    0   0   0
Zn              -1.3082407216        8.3010985074        6.1862800640    0   0   0
Zn               3.9229243575        8.3012795558        6.1747242960    0   0   0
Zn               1.3071799410        0.7547006760        3.6548707760    0   0   0
Zn               6.5358996520        0.7547006760        3.6548707760    0   0   0
Zn               1.3067145165        0.7547497875        8.6986553601
Zn               6.5369387208        0.7524804765        8.7040858950
Zn               0.0000000130        3.0188027250        3.6548707760    0   0   0
Zn               5.2287197240        3.0188027250        3.6548707760    0   0   0
Zn               0.0032674878        3.0233383128        8.6635020672
Zn               5.2293761011        3.0183908361        8.7060711654
Zn              -1.3071799150        5.2829047750        3.6548707760    0   0   0
Zn               3.9215397960        5.2829047750        3.6548707760    0   0   0
Zn              -1.2986775083        5.2811985670        8.6973430393
Zn               3.9152171372        5.2820252976        8.6695864690
Zn              -2.6143598430        7.5470068250        3.6548707760    0   0   0
Zn               2.6143598680        7.5470068250        3.6548707760    0   0   0
Zn              -2.6124503658        7.5459741773        8.7028834881
Zn               2.6104352648        7.5385269283        8.6783278313
Zn               3.9215397970        0.7547006760        3.6548707760    0   0   0
Zn               9.1502595080        0.7547006760        3.6548707760    0   0   0
Zn               3.9218346173        0.7524228838        8.7067509206
Zn               9.1508308109        0.7533245632        8.6998108334
Zn               2.6143598690        3.0188027250        3.6548707760    0   0   0
Zn               7.8430795800        3.0188027250        3.6548707760    0   0   0
Zn               2.6115122015        3.0227240897        8.6652818796
Zn               7.8447400028        3.0183068163        8.7034399502
Zn               1.3071799410        5.2829047750        3.6548707760    0   0   0
Zn               6.5358996520        5.2829047750        3.6548707760    0   0   0
Zn               1.3073822476        5.2780227366        8.9699934976
Zn               6.5376233459        5.2836822033        8.7072529712
Zn               0.0000000130        7.5470068250        3.6548707760    0   0   0
Zn               5.2287197240        7.5470068250        3.6548707760    0   0   0
Zn               0.0052140794        7.5378757978        8.6999389319
Zn               5.2283250107        7.5471172473        8.6996299669
O                1.3331834292        5.1553329743       11.7756560261
H                2.2185214453        5.4984830051       12.0235577012
H                1.3863175146        4.1961209877       11.9777799273                

K_POINTS automatic 
  3 3 1  0 0 0  

