&CONTROL
  calculation = 'relax'   
  restart_mode = 'from_scratch' 
  prefix = 'Zn100_2x4x2_relax'   
  outdir = './tmp'       
  pseudo_dir = '/home/ys/qepseudo/SSSP_1.3.0_PBE_efficiency' 
  tprnfor = .true.       
  tstress = .true.       
  verbosity = 'high'      
  etot_conv_thr = 1.0e-5 
  forc_conv_thr =  5.0e-4 

  max_seconds   =  1.72800e+05 
  nstep         = 100          
/

&SYSTEM
  ibrav = 0           
  nat = 8            
  ntyp = 1            
  ecutwfc = 50.0      
  ecutrho = 400.0     
  occupations = 'smearing'
  smearing = 'mv'     
  degauss = 0.02      
/

&ELECTRONS
  conv_thr = 7.35e-7         
  electron_maxstep = 200
  mixing_beta = 0.7  
  diagonalization = 'david'  
  startingwfc = "atomic+random"
  startingpot = "atomic"
/

&IONS
  ion_dynamics = 'bfgs' 
/

&CELL
  cell_dofree = 'all'  
/

ATOMIC_SPECIES
  Zn 65.38 Zn_pbe_v1.uspp.F.UPF   

CELL_PARAMETERS (angstrom) 
 9.7463216782         0.0000000000         0.0000000000
 0.0000000000         5.2287197113         0.0000000000
 0.0000000000        -9.3900892707         16.2641017015

ATOMIC_POSITIONS (angstrom)  
  Zn  1.218290210  1.307179941  0.754700676  0  0  0
  Zn  1.218290210  3.921539797  0.754700676  0  0  0
  Zn  6.091451049  1.307179941  0.754700676  0  0  0
  Zn  6.091451049  3.921539797  0.754700676  0  0  0
  Zn  3.654870629  -0.000000013  1.509401374  1  1  1
  Zn  3.654870629  2.614359843  1.509401374  1  1  1
  Zn  8.528031468  -0.000000013  1.509401374  1  1  1
  Zn  8.528031468  2.614359843  1.509401374  1  1  1
K_POINTS (automatic)
  4 4 4  0 0 0  