&CONTROL
  calculation = 'relax'    
  restart_mode = 'from_scratch' 
  prefix = 'Zn101_2x4x2_relax'   
  outdir = './tmp'        
  pseudo_dir = '/home/ys/qepseudo/SSSP_1.3.0_PBE_efficiency'
  tprnfor = .true.        
  tstress = .true.        
  verbosity = 'high'      
  etot_conv_thr = 1.0e-5  
  forc_conv_thr =  5.0e-4 
  max_seconds   =  1.72800e+05 
  nstep         = 100           
/

&SYSTEM
  ibrav = 0           
  nat = 16            
  ntyp = 1            
  ecutwfc = 50.0      
  ecutrho = 400.0    
  occupations = 'smearing' 
  smearing = 'mv'     
  degauss = 0.02      
/

&ELECTRONS
  conv_thr = 7.35e-7         
  electron_maxstep = 200
  mixing_beta = 0.7   
  diagonalization = 'david'  
  startingwfc = "atomic+random"
  startingpot = "atomic"
/

&IONS
  ion_dynamics = 'bfgs' 
/

&CELL
  cell_dofree = 'all'   
/

ATOMIC_SPECIES
  Zn  65.38  Zn_pbe_v1.uspp.F.UPF   

CELL_PARAMETERS (angstrom) 
 11.0603027344         0.0000000000         0.0000000000
 -1.2359294312         5.0805499959         0.0000000000
 -37.867579809        -9.2119271362         18.1066176707

ATOMIC_POSITIONS (angstrom)
  Zn  -1.073555657  1.084142236  1.197763569  0  0  0
  Zn  -5.367777671  0.039500342  3.251072404  1  1  1
  Zn  -1.691520373  3.624417234  1.197763569  0  0  0
  Zn  -5.985742386  2.579775340  3.251072404  1  1  1
  Zn  4.456595710  1.084142236  1.197763569  0  0  0
  Zn  0.162373696  0.039500342  3.251072404  1  1  1
  Zn  3.838630995  3.624417234  1.197763569  0  0  0
  Zn  -0.455591019  2.579775340  3.251072404  1  1  1
  Zn  1.691520295  0.411490868  0.855545266  0  0  0
  Zn  -2.602701719  -0.633151026  2.908854101  1  1  1
  Zn  1.073555579  2.951765866  0.855545266  0  0  0
  Zn  -3.220666434  1.907123972  2.908854101  1  1  1
  Zn  7.221671662  0.411490868  0.855545266  0  0  0
  Zn  2.927449648  -0.633151026  2.908854101  1  1  1
  Zn  6.603706947  2.951765866  0.855545266  0  0  0
  Zn  2.309484933  1.907123972  2.908854101  1  1  1
  
K_POINTS automatic  
  4 4 4  0 0 0  

