&CONTROL
  calculation = 'relax'    
  restart_mode ='from_scratch' 
  prefix = 'Zn101_3layer_aniline_relax'  
  outdir = './tmp'       
  pseudo_dir = '/home/ys/qepseudo/SSSP_1.3.0_PBE_efficiency' 
  tprnfor = .true.        
  tstress = .true.       
  verbosity = 'high'      
  etot_conv_thr = 5.0e-5  
  forc_conv_thr =  1.0e-3
  max_seconds   =  1.72800e+06
  nstep         = 300          
/

&SYSTEM
  ibrav = 0           
  nat = 62            
  ntyp = 4            
  ecutwfc = 40.0
  ecutrho = 280.0    
  occupations = 'smearing'
  smearing = 'mv'     
  nosym = .TRUE.
  degauss = 0.02      
  vdw_corr='grimme-d3'
/

&ELECTRONS
  conv_thr = 1e-6 
  electron_maxstep = 200
  mixing_beta = 0.4   
  diagonalization = 'david'  
  startingwfc = "atomic+random"
  startingpot = "atomic"
/

&IONS
  ion_dynamics = 'bfgs' 
/

&CELL
  cell_dofree = 'all'   
/

ATOMIC_SPECIES
  Zn  65.38  Zn_pbe_v1.uspp.F.UPF  
  N      14.00674  N.pbe-n-radius_5.UPF
  C      12.01070  C.pbe-n-kjpaw_psl.1.0.0.UPF
  H       1.00794  H.pbe-rrkjus_psl.1.0.0.UPF


CELL_PARAMETERS (angstrom) 
       11.0603027344         0.0000000000         0.0000000000
       -2.4718588623        10.1610999917         0.0000000000
      -46.4560228483       -11.3012106837        22.2132348689
        
ATOMIC_POSITIONS (angstrom)
Zn              -1.0735560000        1.0841420000        1.1977640000    0   0   0
Zn              -2.3094850000        6.1646920000        1.1977640000    0   0   0
Zn              -4.9419209776        0.1557326227        3.8573716755
Zn              -6.1883884896        5.2401923378        3.8115500622
Zn              -9.0867837442       -0.8695862490        5.8034249012
Zn             -10.3493528611        4.2429088158        5.8061348794
Zn              -1.6915200000        3.6244170000        1.1977640000    0   0   0
Zn              -2.9274500000        8.7049670000        1.1977640000    0   0   0
Zn              -5.5796451008        2.6872213392        3.8216189067
Zn              -6.7954615507        7.7810843968        3.8549486813
Zn              -9.7201584878        1.6936159195        5.7594508010
Zn             -10.9647938402        6.7662012850        5.8167478411
Zn               4.4565960000        1.0841420000        1.1977640000    0   0   0
Zn               3.2206660000        6.1646920000        1.1977640000    0   0   0
Zn               0.3868615166        0.1094639294        3.4343008381
Zn              -0.8479489141        5.1991712904        3.4271121379
Zn              -3.0175555406       -0.7178392095        5.5956145055
Zn              -4.3130327122        4.3500766321        5.5933746506
Zn               3.8386310000        3.6244170000        1.1977640000    0   0   0
Zn               2.6027020000        8.7049670000        1.1977640000    0   0   0
Zn              -0.2292135566        2.6524194987        3.4472703732
Zn              -1.4738432542        7.7265449971        3.4266065705
Zn              -3.6604997584        1.8128079523        5.5979575165
Zn              -4.9046323736        6.8970227502        5.5934087865
Zn               1.6915200000        0.4114910000        0.8555450000    0   0   0
Zn               0.4555910000        5.4920410000        0.8555450000    0   0   0
Zn              -2.3670598207       -0.5736677794        2.9042249769
Zn              -3.5968731048        4.4999640520        2.9228041283
Zn              -6.6407129427       -1.6100861895        5.0725670815
Zn              -7.8723528386        3.4850199830        5.1122159094
Zn               1.0735560000        2.9517660000        0.8555450000    0   0   0
Zn              -0.1623740000        8.0323160000        0.8555450000    0   0   0
Zn              -2.9811052560        1.9680835754        2.9132564877
Zn              -4.2202070339        7.0436424022        2.9157000111
Zn              -7.2560781890        0.9403432092        5.1032234892
Zn              -8.4988858000        6.0324737695        5.0813374024
Zn               7.2216720000        0.4114910000        0.8555450000    0   0   0
Zn               5.9857420000        5.4920410000        0.8555450000    0   0   0
Zn               3.0899308850       -0.5865706871        2.9448585726
Zn               1.8628069680        4.4890500988        2.9465243264
Zn              -0.5270625278       -1.4638376594        5.5625284662
Zn              -1.7957314690        3.6245033949        5.5366029181
Zn               6.6037070000        2.9517660000        0.8555450000    0   0   0
Zn               5.3677780000        8.0323160000        0.8555450000    0   0   0
Zn               2.4760020500        1.9540719488        2.9629959197
Zn               1.2332249674        7.0324071458        2.9223633516
Zn              -1.1582461376        1.0879926794        5.6162607020
Zn              -2.4169364503        6.1509484884        5.4992047547
C               -9.9662624089        2.5187772665       11.2307318142
N               -9.9064146037        1.5771617741        8.9922770851
C               -9.7862221980        2.3722503806       12.6047888183
C               -9.7704764875        1.4270711999       10.3749460263
H              -10.2048747931        3.4923133451       10.7962145821
H               -9.7504818104        2.5278835084        8.6578647717
C               -9.4446755058        1.1342863717       13.1552823675
C               -9.4369483149        0.1802863954       10.9209103431
C               -9.2611114836        0.0446972799       12.2968601528
H               -9.8905782748        3.2536053427       13.2382058842
H               -9.3741445262        0.8873793098        8.4609409668
H               -9.3163974959        1.0251025200       14.2329921465
H               -9.2681674089       -0.6658055988       10.2473420122
H               -8.9503757232       -0.9233037054       12.6901722248

K_POINTS automatic 
  2 2 1  0 0 0  

