&CONTROL
  calculation = 'relax'    
  restart_mode ='from_scratch' 
  prefix = 'Zn100_3layer_ptoluidine_relax'  
  outdir = './tmp'       
  pseudo_dir = '/home/ys/qepseudo/SSSP_1.3.0_PBE_efficiency' 
  tprnfor = .true.        
  tstress = .true.       
  verbosity = 'high'      
  etot_conv_thr = 5.0e-5  
  forc_conv_thr =  1.0e-3
  max_seconds   =  1.72800e+06
  nstep         = 300          
/

&SYSTEM
  ibrav = 0           
  nat = 65            
  ntyp = 4            
  ecutwfc = 40.0
  ecutrho = 280.0    
  occupations = 'smearing'
  smearing = 'mv'     
  nosym = .TRUE.
  degauss = 0.02      
  vdw_corr='grimme-d3'
/

&ELECTRONS
  conv_thr = 1e-6        
  electron_maxstep = 200
  mixing_beta = 0.4   
  diagonalization = 'david'  
  startingwfc = "atomic+random"
  startingpot = "atomic"
/

&IONS
  ion_dynamics = 'bfgs' 
/

&CELL
  cell_dofree = 'all'   
/

ATOMIC_SPECIES
  Zn  65.38  Zn_pbe_v1.uspp.F.UPF  
  N      14.00674  N.pbe-n-radius_5.UPF
  C      12.01070  C.pbe-n-kjpaw_psl.1.0.0.UPF
  H       1.00794  H.pbe-rrkjus_psl.1.0.0.UPF

CELL_PARAMETERS (angstrom) 
        9.7463216782         0.0000000000         0.0000000000
        0.0000000000        10.4574394226         0.0000000000
        0.0000000000       -13.3116235733        23.0564083602

ATOMIC_POSITIONS (angstrom)
Zn               1.2182900000        1.3071800000        0.7547010000    0   0   0
Zn               1.2182900000        6.5359000000        0.7547010000    0   0   0
Zn               1.2148464933       -0.0006650635        3.5874954904
Zn               1.2150610357        5.2292681176        3.5846079769
Zn               1.2182286010       -1.3074676832        6.2700117796
Zn               1.2178020609        3.9201163524        6.2708315794
Zn               1.2182900000        3.9215400000        0.7547010000    0   0   0
Zn               1.2182900000        9.1502600000        0.7547010000    0   0   0
Zn               1.2126662223        2.6136349453        3.5749285226
Zn               1.2171041645        7.8424636378        3.5822553991
Zn               1.2183225163        1.3075931015        6.2725643588
Zn               1.2185361325        6.5349913270        6.2694621234
Zn               6.0914510000        1.3071800000        0.7547010000    0   0   0
Zn               6.0914510000        6.5359000000        0.7547010000    0   0   0
Zn               6.0982225044       -0.0009807402        3.5873486404
Zn               6.0982749384        5.2289178615        3.5905218552
Zn               6.0944273005       -1.3073429879        6.2675858863
Zn               6.0917439929        3.9193446318        6.2723386886
Zn               6.0914510000        3.9215400000        0.7547010000    0   0   0
Zn               6.0914510000        9.1502600000        0.7547010000    0   0   0
Zn               6.1008681711        2.6141565907        3.5760499982
Zn               6.0958833256        7.8425230831        3.5841249193
Zn               6.0933366580        1.3074119325        6.2679219552
Zn               6.0939408891        6.5347900418        6.2688265801
Zn               3.6548710000       -0.0000000000        1.5094010000    0   0   0
Zn               3.6548710000        5.2287200000        1.5094010000    0   0   0
Zn               3.6583251452       -1.3084825824        3.8411874489
Zn               3.6588077411        3.9240258663        3.8324262843
Zn               3.6588764759       -2.6155414057        6.2437487500
Zn               3.6568297890        2.6122137531        6.2159498269
Zn               3.6548710000        2.6143600000        1.5094010000    0   0   0
Zn               3.6548710000        7.8430800000        1.5094010000    0   0   0
Zn               3.6583134766        1.3032208330        3.8320249521
Zn               3.6579522824        6.5371659689        3.8408871232
Zn               3.6584834033       -0.0002117711        6.2430555773
Zn               3.6581595937        5.2273936877        6.2453233552
Zn               8.5280310000       -0.0000000000        1.5094010000    0   0   0
Zn               8.5280310000        5.2287200000        1.5094010000    0   0   0
Zn               8.5282334292       -1.3077200915        3.8533587457
Zn               8.5290238742        3.9213642611        3.8535989311
Zn               8.5271584431       -2.6149386447        6.2650546072
Zn               8.5258826928        2.6136875365        6.2746354520
Zn               8.5280310000        2.6143600000        1.5094010000    0   0   0
Zn               8.5280310000        7.8430800000        1.5094010000    0   0   0
Zn               8.5283068637        1.3059506823        3.8539416608
Zn               8.5287843489        6.5368395893        3.8532155279
Zn               8.5270346647       -0.0002112006        6.2689485511
Zn               8.5263470269        5.2281305208        6.2699564530
C                3.0388618508        3.6703916176       13.2703798441
C                3.6389641224        2.6056663351       13.9669273781
C                3.0492532630        3.7008357398       11.8775095007
C                4.1997084080        1.5592942013       13.2164963634
C                3.6387075729        2.6815900619       11.1160059838
C                4.1983023958        1.6090582795       11.8207994394
C                3.6744522393        2.7472661649        9.6084459927
N                3.7450576457        2.6298494390       15.3603112117
H                3.0606572003        3.2015149449       15.8442985877
H                4.2106574733        3.6411783032        9.2446480214
H                2.5726660692        4.4893459266       13.8271021323
H                3.8843309429        1.7298193597       15.8056369020
H                2.5908694626        4.5508234509       11.3682335530
H                4.6549788187        0.7053192620       13.7269969827
H                4.6606704336        0.7914897684       11.2655540695
H                4.1805194829        1.8690482206        9.1792504050
H                2.6618775263        2.7882438232        9.1706048160

K_POINTS automatic 
  3 3 1  0 0 0  

