&CONTROL
  calculation = 'relax'    
  restart_mode = 'from_scratch' 
  prefix = 'Zn002_4x4x2_primitive_14Avacumn_topsite_tilted_ABN'  
  outdir = './tmp'       
  pseudo_dir = '/home/ys/qepseudo/SSSP_1.3.0_PBE_efficiency' 
  tprnfor = .true.        
  tstress = .true.       
  verbosity = 'high'      
  etot_conv_thr = 1.0e-5  
  forc_conv_thr =  5.0e-4 

  max_seconds   =  1.72800e+05 
  nstep         = 100          
/

&SYSTEM
  ibrav = 0           
  nat = 79            
  ntyp = 4            
  ecutwfc = 30.0     
  ecutrho = 120.0    
  occupations = 'smearing'
  smearing = 'mv'     
  degauss = 0.02      
  nosym = .TRUE.
/

&ELECTRONS
  conv_thr = 7.35e-7        
  electron_maxstep = 200
  mixing_beta = 0.7   
  diagonalization = 'david'  
  startingwfc = "atomic+random"
  startingpot = "atomic"
/

&IONS
  ion_dynamics = 'bfgs' 
/

&CELL
  cell_dofree = 'all'   
/

ATOMIC_SPECIES
  Zn  65.38  Zn_pbe_v1.uspp.F.UPF  
  C  12.0107   C.pbe-n-kjpaw_psl.1.0.0.UPF  
  N  14.0067   N.pbe-n-radius_5.UPF  
  H  1.008   H.pbe-rrkjus_psl.1.0.0.UPF  

CELL_PARAMETERS (angstrom) 
       10.4574394226         0.0000000000         0.0000000000
       -5.2287197113         9.0564081985         0.0000000000
        0.0000000000         0.0000000000        23.7463226318

ATOMIC_POSITIONS (angstrom)  
Zn  -0.0000000130  1.5094013740  1.2182902590  0 0 0
Zn  5.2287196980  1.5094013740  1.2182902590  0 0 0
Zn  0.0011120427  1.5098156786  6.1721139700  0 0 0
Zn  5.2276298567  1.5096812409  6.1878303447  0 0 0
Zn  -1.3071799410  3.7735034240  1.2182902590  0 0 0
Zn  3.9215397700  3.7735034240  1.2182902590  0 0 0
Zn  -1.3069300877  3.7744055475  6.1790147181  0 0 0
Zn  3.9211654507  3.7735432858  6.1841575930  0 0 0
Zn  -2.6143598690  6.0376054730  1.2182902590  0 0 0
Zn  2.6143598420  6.0376054730  1.2182902590  0 0 0
Zn  -2.6142664897  6.0378510255  6.1861027382  0 0 0
Zn  2.6141756116  6.0366437837  6.1776090524  0 0 0
Zn  -3.9215397970  8.3017075230  1.2182902590  0 0 0
Zn  1.3071799140  8.3017075230  1.2182902590  0 0 0
Zn  -3.9206627632  8.3013971165  6.1799331037  0 0 0
Zn  1.3061892394  8.3010083570  6.1815705960  0 0 0
Zn  2.6143598430  1.5094013740  1.2182902590  0 0 0
Zn  7.8430795540  1.5094013740  1.2182902590  0 0 0
Zn  2.6139064777  1.5091536489  6.1808539610  0 0 0
Zn  7.8434993133  1.5104311852  6.1795685079  0 0 0
Zn  1.3071799150  3.7735034240  1.2182902590  0 0 0
Zn  6.5358996260  3.7735034240  1.2182902590  0 0 0
Zn  1.3068490933  3.7733862370  6.1747897063  0 0 0
Zn  6.5361293872  3.7744930338  6.1877720625  0 0 0
Zn  -0.0000000130  6.0376054730  1.2182902590  0 0 0
Zn  5.2287196980  6.0376054730  1.2182902590  0 0 0
Zn  -0.0010277368  6.0371123597  6.1810339429  0 0 0
Zn  5.2296452053  6.0375740856  6.1834586640  0 0 0
Zn  -1.3071799410  8.3017075230  1.2182902590  0 0 0
Zn  3.9215397700  8.3017075230  1.2182902590  0 0 0
Zn  -1.3082407216  8.3010985074  6.1862800640  0 0 0
Zn  3.9229243575  8.3012795558  6.1747242960  0 0 0
Zn  1.3071799410  0.7547006760  3.6548707760  0 0 0
Zn  6.5358996520  0.7547006760  3.6548707760  0 0 0
Zn  1.3063097919  0.7556639552  8.7017023406  1 1 1
Zn  6.5368484949  0.7542415226  8.7014772955  1 1 1
Zn  0.0000000130  3.0188027250  3.6548707760  0 0 0
Zn  5.2287197240  3.0188027250  3.6548707760  0 0 0
Zn  0.0012077070  3.0183137757  8.6995357503  1 1 1
Zn  5.2275368360  3.0193282711  8.7080491230  1 1 1
Zn  -1.3071799150  5.2829047750  3.6548707760  0 0 0
Zn  3.9215397960  5.2829047750  3.6548707760  0 0 0
Zn  -1.3060135766  5.2821375053  8.7090114896  1 1 1
Zn  3.9203395195  5.2831485551  8.7030594639  1 1 1
Zn  -2.6143598430  7.5470068250  3.6548707760  0 0 0
Zn  2.6143598680  7.5470068250  3.6548707760  0 0 0
Zn  -2.6152134537  7.5476114751  8.7113197459  1 1 1
Zn  2.6152885791  7.5462041478  8.6961949660  1 1 1
Zn  3.9215397970  0.7547006760  3.6548707760  0 0 0
Zn  9.1502595080  0.7547006760  3.6548707760  0 0 0
Zn  3.9197494301  0.7550531582  8.7089567585  1 1 1
Zn  9.1523326532  0.7548496522  8.6942480243  1 1 1
Zn  2.6143598690  3.0188027250  3.6548707760  0 0 0
Zn  7.8430795800  3.0188027250  3.6548707760  0 0 0
Zn  2.6124950971  3.0190120242  8.7037204626  1 1 1
Zn  7.8449942195  3.0187128750  8.7044427412  1 1 1
Zn  1.3071799410  5.2829047750  3.6548707760  0 0 0
Zn  6.5358996520  5.2829047750  3.6548707760  0 0 0
Zn  1.3073582024  5.2816176138  8.7017057547  1 1 1
Zn  6.5356674941  5.2836520533  8.7103205903  1 1 1
Zn  0.0000000130  7.5470068250  3.6548707760  0 0 0
Zn  5.2287197240  7.5470068250  3.6548707760  0 0 0
Zn  0.0001698514  7.5458640274  8.7070356549  1 1 1
Zn  5.2285638749  7.5480140040  8.7014188139  1 1 1
C  2.2041163927  5.0588370620  16.1791010795  
C  2.9647095150  4.5109332559  15.0983995011  
C  2.7434482652  3.1910216706  14.6582340816  
C  3.9518618262  5.2792313463  14.4502351017  
C  4.6901668270  4.7498234488  13.4024513149  
C  3.4798071093  2.6582507001  13.6107852783  
C  4.4713599921  3.4258228489  12.9576140857  
N  1.5860764379  5.5039645697  17.0573347420  
N  5.1980113944  2.9023970127  11.9254680284  
H  5.9049372136  3.4506924111  11.4583281540  
H  5.0409434741  1.9576604353  11.6070436454  
H  1.9820342883  2.5825555620  15.1500886541  
H  4.1355347116  6.3038007347  14.7793495797  
H  5.4517953675  5.3620445560  12.9122861058  
H  3.2931550946  1.6319174211  13.2839098801  

K_POINTS automatic 
  3 3 1  0 0 0  

