&CONTROL
  calculation = 'relax'    
  restart_mode = 'from_scratch' 
  prefix = 'Zn002_4x4x2_primitive_14Avacumn_bridgesite_tilted_cross_ABN'  
  outdir = './tmp'       
  pseudo_dir = '/home/ys/qepseudo/SSSP_1.3.0_PBE_efficiency' 
  tprnfor = .true.        
  tstress = .true.       
  verbosity = 'high'      
  etot_conv_thr = 1.0e-5  
  forc_conv_thr =  5.0e-4 

  max_seconds   =  1.72800e+05 
  nstep         = 100          
/

&SYSTEM
  ibrav = 0           
  nat = 79            
  ntyp = 4            
  ecutwfc = 30.0     
  ecutrho = 120.0    
  occupations = 'smearing'
  smearing = 'mv'     
  degauss = 0.02      
  nosym = .TRUE.
/

&ELECTRONS
  conv_thr = 7.35e-7        
  electron_maxstep = 200
  mixing_beta = 0.7   
  diagonalization = 'david'  
  startingwfc = "atomic+random"
  startingpot = "atomic"
/

&IONS
  ion_dynamics = 'bfgs' 
/

&CELL
  cell_dofree = 'all'   
/

ATOMIC_SPECIES
  Zn  65.38  Zn_pbe_v1.uspp.F.UPF  
  C  12.0107   C.pbe-n-kjpaw_psl.1.0.0.UPF  
  N  14.0067   N.pbe-n-radius_5.UPF  
  H  1.008   H.pbe-rrkjus_psl.1.0.0.UPF  

CELL_PARAMETERS (angstrom) 
       10.4574394226         0.0000000000         0.0000000000
       -5.2287197113         9.0564081985         0.0000000000
        0.0000000000         0.0000000000        23.7463226318

ATOMIC_POSITIONS (angstrom)  
Zn  -0.0000000130  1.5094013740  1.2182902590  0 0 0
Zn  5.2287196980  1.5094013740  1.2182902590  0 0 0
Zn  0.0011120427  1.5098156786  6.1721139700  0 0 0
Zn  5.2276298567  1.5096812409  6.1878303447  0 0 0
Zn  -1.3071799410  3.7735034240  1.2182902590  0 0 0
Zn  3.9215397700  3.7735034240  1.2182902590  0 0 0
Zn  -1.3069300877  3.7744055475  6.1790147181  0 0 0
Zn  3.9211654507  3.7735432858  6.1841575930  0 0 0
Zn  -2.6143598690  6.0376054730  1.2182902590  0 0 0
Zn  2.6143598420  6.0376054730  1.2182902590  0 0 0
Zn  -2.6142664897  6.0378510255  6.1861027382  0 0 0
Zn  2.6141756116  6.0366437837  6.1776090524  0 0 0
Zn  -3.9215397970  8.3017075230  1.2182902590  0 0 0
Zn  1.3071799140  8.3017075230  1.2182902590  0 0 0
Zn  -3.9206627632  8.3013971165  6.1799331037  0 0 0
Zn  1.3061892394  8.3010083570  6.1815705960  0 0 0
Zn  2.6143598430  1.5094013740  1.2182902590  0 0 0
Zn  7.8430795540  1.5094013740  1.2182902590  0 0 0
Zn  2.6139064777  1.5091536489  6.1808539610  0 0 0
Zn  7.8434993133  1.5104311852  6.1795685079  0 0 0
Zn  1.3071799150  3.7735034240  1.2182902590  0 0 0
Zn  6.5358996260  3.7735034240  1.2182902590  0 0 0
Zn  1.3068490933  3.7733862370  6.1747897063  0 0 0
Zn  6.5361293872  3.7744930338  6.1877720625  0 0 0
Zn  -0.0000000130  6.0376054730  1.2182902590  0 0 0
Zn  5.2287196980  6.0376054730  1.2182902590  0 0 0
Zn  -0.0010277368  6.0371123597  6.1810339429  0 0 0
Zn  5.2296452053  6.0375740856  6.1834586640  0 0 0
Zn  -1.3071799410  8.3017075230  1.2182902590  0 0 0
Zn  3.9215397700  8.3017075230  1.2182902590  0 0 0
Zn  -1.3082407216  8.3010985074  6.1862800640  0 0 0
Zn  3.9229243575  8.3012795558  6.1747242960  0 0 0
Zn  1.3071799410  0.7547006760  3.6548707760  0 0 0
Zn  6.5358996520  0.7547006760  3.6548707760  0 0 0
Zn  1.3063097919  0.7556639552  8.7017023406  1 1 1
Zn  6.5368484949  0.7542415226  8.7014772955  1 1 1
Zn  0.0000000130  3.0188027250  3.6548707760  0 0 0
Zn  5.2287197240  3.0188027250  3.6548707760  0 0 0
Zn  0.0012077070  3.0183137757  8.6995357503  1 1 1
Zn  5.2275368360  3.0193282711  8.7080491230  1 1 1
Zn  -1.3071799150  5.2829047750  3.6548707760  0 0 0
Zn  3.9215397960  5.2829047750  3.6548707760  0 0 0
Zn  -1.3060135766  5.2821375053  8.7090114896  1 1 1
Zn  3.9203395195  5.2831485551  8.7030594639  1 1 1
Zn  -2.6143598430  7.5470068250  3.6548707760  0 0 0
Zn  2.6143598680  7.5470068250  3.6548707760  0 0 0
Zn  -2.6152134537  7.5476114751  8.7113197459  1 1 1
Zn  2.6152885791  7.5462041478  8.6961949660  1 1 1
Zn  3.9215397970  0.7547006760  3.6548707760  0 0 0
Zn  9.1502595080  0.7547006760  3.6548707760  0 0 0
Zn  3.9197494301  0.7550531582  8.7089567585  1 1 1
Zn  9.1523326532  0.7548496522  8.6942480243  1 1 1
Zn  2.6143598690  3.0188027250  3.6548707760  0 0 0
Zn  7.8430795800  3.0188027250  3.6548707760  0 0 0
Zn  2.6124950971  3.0190120242  8.7037204626  1 1 1
Zn  7.8449942195  3.0187128750  8.7044427412  1 1 1
Zn  1.3071799410  5.2829047750  3.6548707760  0 0 0
Zn  6.5358996520  5.2829047750  3.6548707760  0 0 0
Zn  1.3073582024  5.2816176138  8.7017057547  1 1 1
Zn  6.5356674941  5.2836520533  8.7103205903  1 1 1
Zn  0.0000000130  7.5470068250  3.6548707760  0 0 0
Zn  5.2287197240  7.5470068250  3.6548707760  0 0 0
Zn  0.0001698514  7.5458640274  8.7070356549  1 1 1
Zn  5.2285638749  7.5480140040  8.7014188139  1 1 1               
C       5.1115888246      6.8184122044     16.5729101182                 
C       4.6459626447      6.1611222425     15.3906332697                 
C       5.4430954913      5.1987451005     14.7400349363                 
C       3.3798217772      6.4615950301     14.8507516738                 
C       2.9267512582      5.8254725952     13.7047616160                 
C       4.9933478859      4.5605888389     13.5938665686                 
C       3.7234193483      4.8591640427     13.0487875954                 
N       5.4900573961      7.3525395207     17.5335743677                 
N       3.2787438329      4.2314695428     11.9193693156                 
H       2.3717065060      4.4436221329     11.5309543492                 
H       3.8469097223      3.5407073790     11.4517938937                 
H       6.4267935386      4.9546153410     15.1457959279                 
H       2.7499145229      7.2050247077     15.3430154907                 
H       1.9411731851      6.0724657429     13.3012955123                 
H       5.6268281008      3.8166849878     13.1036050285   

K_POINTS automatic 
  3 3 1  0 0 0  

