&CONTROL
  calculation = 'scf'    
  restart_mode = 'from_scratch' 
  prefix = 'Zn002_2x2x4_scf_H2O'  
  outdir = './tmp'       
  pseudo_dir = '/home/ys/qepseudo/SSSP_1.3.0_PBE_efficiency' 
  tprnfor = .true.        
  tstress = .true.       
  verbosity = 'high'      
  max_seconds   =  1.72800e+05 
/

&SYSTEM
  ibrav = 0           
  nat = 35            
  ntyp = 3            
  ecutwfc = 50.0     
  ecutrho = 200.0    
  occupations = 'smearing'
  smearing = 'mv'     
  degauss = 0.02      
  nosym = .TRUE.
/

&ELECTRONS
  conv_thr = 7.35e-7        
  electron_maxstep = 200
  mixing_beta = 0.7   
  diagonalization = 'david'  
  startingwfc = "atomic+random"
  startingpot = "atomic"
/

ATOMIC_SPECIES
  Zn  65.38  Zn_pbe_v1.uspp.F.UPF  
  H  1.008   H.pbe-rrkjus_psl.1.0.0.UPF  
  O  16.000   O.pbe-n-kjpaw_psl.0.1.UPF  

CELL_PARAMETERS (angstrom) 
        5.2287197113         0.0000000000         0.0000000000
       -5.2287197113         9.0564081985         0.0000000000
        0.0000000000         0.0000000000         23.7463216782

ATOMIC_POSITIONS (angstrom)  
Zn              -0.0000000130        1.5094013740        1.2182902100    0   0   0
Zn               0.0209100469        1.5096461944        6.2388049087
Zn              -1.3071799410        3.7735034240        1.2182902100    0   0   0
Zn              -1.2852980625        3.7822559789        6.2608830831
Zn              -2.6143598690        6.0376054730        1.2182902100    0   0   0
Zn              -2.5894844965        6.0341157118        6.2514092416
Zn              -3.9215397970        8.3017075230        1.2182902100    0   0   0
Zn              -3.9003890076        8.2969636064        6.2435555172
Zn               2.6143598430        1.5094013740        1.2182902100    0   0   0
Zn               2.6364696486        1.5095463187        6.2412510908
Zn               1.3071799150        3.7735034240        1.2182902100    0   0   0
Zn               1.3287396195        3.7786236209        6.2552512818
Zn              -0.0000000130        6.0376054730        1.2182902100    0   0   0
Zn               0.0185092639        6.0338318321        6.2545184433
Zn              -1.3071799410        8.3017075230        1.2182902100    0   0   0
Zn              -1.2846827636        8.2963024471        6.2635587346
Zn               1.3071799410        0.7547006760        3.6548706290    0   0   0
Zn               1.3340976701        0.7379490530        8.8244760415
Zn               0.0000000130        3.0188027250        3.6548706290    0   0   0
Zn               0.0256196256        3.0092024182        8.8007592607
Zn              -1.3071799150        5.2829047750        3.6548706290    0   0   0
Zn              -1.2736560656        5.2680260779        9.0964999462
Zn              -2.6143598430        7.5470068250        3.6548706290    0   0   0
Zn              -2.5852575828        7.5230224357        8.8047464027
Zn               3.9215397970        0.7547006760        3.6548706290    0   0   0
Zn               3.9483529036        0.7391342090        8.8252349185
Zn               2.6143598690        3.0188027250        3.6548706290    0   0   0
Zn               2.6437496820        3.0070999612        8.7989554082
Zn               1.3071799410        5.2829047750        3.6548706290    0   0   0
Zn               1.3359184422        5.2651428713        8.8160962017
Zn               0.0000000130        7.5470068250        3.6548706290    0   0   0
Zn               0.0266304228        7.5250577082        8.8259717394
O               -1.3416421221        5.1449322969       11.7821386111
H               -2.1796004233        5.6184882470       11.9760969515
H               -1.5960215370        4.1971546142       11.8111141358

K_POINTS automatic 
  3 3 1  0 0 0  

