&CONTROL
  calculation = 'relax'    
  restart_mode ='from_scratch' 
  prefix = 'Zn101_3layer_ptoluidine_relax'  
  outdir = './tmp'       
  pseudo_dir = '/home/ys/qepseudo/SSSP_1.3.0_PBE_efficiency' 
  tprnfor = .true.        
  tstress = .true.       
  verbosity = 'high'      
  etot_conv_thr = 5.0e-5  
  forc_conv_thr =  1.0e-3
  max_seconds   =  1.72800e+06
  nstep         = 300          
/

&SYSTEM
  ibrav = 0           
  nat = 65            
  ntyp = 4            
  ecutwfc = 40.0
  ecutrho = 280.0    
  occupations = 'smearing'
  smearing = 'mv'     
  nosym = .TRUE.
  degauss = 0.02      
  vdw_corr='grimme-d3'
/

&ELECTRONS
  conv_thr = 1e-6 
  electron_maxstep = 200
  mixing_beta = 0.4   
  diagonalization = 'david'  
  startingwfc = "atomic+random"
  startingpot = "atomic"
/

&IONS
  ion_dynamics = 'bfgs' 
/

&CELL
  cell_dofree = 'all'   
/

ATOMIC_SPECIES
  Zn  65.38  Zn_pbe_v1.uspp.F.UPF  
  N      14.00674  N.pbe-n-radius_5.UPF
  C      12.01070  C.pbe-n-kjpaw_psl.1.0.0.UPF
  H       1.00794  H.pbe-rrkjus_psl.1.0.0.UPF


CELL_PARAMETERS (angstrom) 
       11.0603027344         0.0000000000         0.0000000000
       -2.4718588623        10.1610999917         0.0000000000
      -46.4560228483       -11.3012106837        22.2132348689
        
ATOMIC_POSITIONS (angstrom)  
Zn  -1.0735560000  1.0841420000  1.1977640000  0 0 0
Zn  -2.3094850000  6.1646920000  1.1977640000  0 0 0
Zn  -4.9066780872  0.1471257211  3.6141135798  1 1 1
Zn  -6.1423010651  5.2288564465  3.6126559093  1 1 1
Zn  -8.8655797339  -0.8168695914  5.7565946018  1 1 1
Zn  -10.1054724419  4.2661596694  5.7551755540  1 1 1
Zn  -1.6915200000  3.6244170000  1.1977640000  0 0 0
Zn  -2.9274500000  8.7049670000  1.1977640000  0 0 0
Zn  -5.5236902538  2.6888074114  3.6137434963  1 1 1
Zn  -6.7612573619  7.7681890257  3.6131667341  1 1 1
Zn  -9.4865928267  1.7248918318  5.7546980937  1 1 1
Zn  -10.7208036763  6.8059979326  5.7571019068  1 1 1
Zn  4.4565960000  1.0841420000  1.1977640000  0 0 0
Zn  3.2206660000  6.1646920000  1.1977640000  0 0 0
Zn  0.6250026166  0.1474996529  3.5852656974  1 1 1
Zn  -0.6106897256  5.2292631862  3.5832833503  1 1 1
Zn  -3.3070518742  -0.8102928099  5.7549872660  1 1 1
Zn  -4.5471810218  4.2737414966  5.7535530350  1 1 1
Zn  3.8386310000  3.6244170000  1.1977640000  0 0 0
Zn  2.6027020000  8.7049670000  1.1977640000  0 0 0
Zn  0.0079281341  2.6886582253  3.5852531153  1 1 1
Zn  -1.2293445922  7.7688529077  3.5835180869  1 1 1
Zn  -3.9284188733  1.7317258656  5.7533806231  1 1 1
Zn  -5.1620050332  6.8128550400  5.7553366478  1 1 1
Zn  1.6915200000  0.4114910000  0.8555450000  0 0 0
Zn  0.4555910000  5.4920410000  0.8555450000  0 0 0
Zn  -2.3478053059  -0.5715020769  2.9361009300  1 1 1
Zn  -3.5829464133  4.5096371885  2.9359331352  1 1 1
Zn  -6.3765819190  -1.5556890371  5.0591806356  1 1 1
Zn  -7.6146615989  3.5275022921  5.0605505642  1 1 1
Zn  1.0735560000  2.9517660000  0.8555450000  0 0 0
Zn  -0.1623740000  8.0323160000  0.8555450000  0 0 0
Zn  -2.9651249710  1.9692890463  2.9349715655  1 1 1
Zn  -4.2014684318  7.0491858990  2.9368829071  1 1 1
Zn  -6.9957071611  0.9857501580  5.0608485564  1 1 1
Zn  -8.2312147364  6.0665911600  5.0586760082  1 1 1
Zn  7.2216720000  0.4114910000  0.8555450000  0 0 0
Zn  5.9857420000  5.4920410000  0.8555450000  0 0 0
Zn  3.1865781527  -0.5705867949  2.9323880782  1 1 1
Zn  1.9516959296  4.5107758805  2.9315330046  1 1 1
Zn  -0.8168797018  -1.5479299112  5.0621196410  1 1 1
Zn  -2.0555247426  3.5342674893  5.0635352833  1 1 1
Zn  6.6037070000  2.9517660000  0.8555450000  0 0 0
Zn  5.3677780000  8.0323160000  0.8555450000  0 0 0
Zn  2.5693538158  1.9698122885  2.9312239646  1 1 1
Zn  1.3330186590  7.0505979836  2.9326462348  1 1 1
Zn  -1.4359481542  0.9932339489  5.0634602956  1 1 1
Zn  -2.6721397881  6.0734755981  5.0619953043  1 1 1
H      -10.3117144101      1.7713671121     15.2660977622                 
C       -9.3367437007      1.4788700459     14.8463044890                 
C       -9.1215459814      0.2897325185     11.2090369661                 
C       -9.6700452256      2.6221479140     12.6116933931                 
C       -9.4277178100      1.4585533026     10.4893988862                 
C       -9.3650627138      1.4616268353     13.3391883437                 
C       -9.7023862930      2.6305595555     11.2208676672                 
C       -9.0927682053      0.3011846751     12.6035751685                 
N       -9.4597904129      1.4597271033      9.1103948179                 
H       -8.9051046069     -0.6337949251     10.6668049289                 
H       -9.8892007821      3.5483341974     13.1491480056                 
H       -9.0824633646      0.4914860369     15.2540515788                 
H       -9.6791894500      2.2984907004      8.5962950217                 
H       -9.2628564914      0.6222739171      8.5844235150                 
H       -9.9444126327      3.5529953096     10.6871894305                 
H       -8.8517489851     -0.6246812893     13.1317552812                 
H       -8.5953383709      2.1976910989     15.2284582810     

K_POINTS automatic 
  3 3 1  0 0 0  

