&CONTROL
  calculation = 'relax'    
  restart_mode ='from_scratch' 
  prefix = '05_Zn100_ABN_topsite_tilted_edgeon'  
  outdir = './tmp'       
  pseudo_dir = '/home/ys/qepseudo/SSSP_1.3.0_PBE_efficiency' 
  tprnfor = .true.        
  tstress = .true.       
  verbosity = 'high'      
  etot_conv_thr = 1.0e-5  
  forc_conv_thr =  5.0e-4 
  max_seconds   =  1.72800e+06
  nstep         = 500          
/

&SYSTEM
  ibrav = 0           
  nat = 63            
  ntyp = 4            
  ecutwfc = 40.0
  ecutrho = 280.0    
  occupations = 'smearing'
  smearing = 'mv'     
  nosym = .TRUE.
  degauss = 0.02      
  vdw_corr='grimme-d3'
/

&ELECTRONS
  conv_thr = 1e-6        
  electron_maxstep = 200
  mixing_beta = 0.4   
  diagonalization = 'david'  
  startingwfc = "atomic+random"
  startingpot = "atomic"
/

&IONS
  ion_dynamics = 'bfgs' 
/

&CELL
  cell_dofree = 'all'   
/

ATOMIC_SPECIES
  Zn  65.38  Zn_pbe_v1.uspp.F.UPF  
  N      14.00674  N.pbe-n-radius_5.UPF
  C      12.01070  C.pbe-n-kjpaw_psl.1.0.0.UPF
  H       1.00794  H.pbe-rrkjus_psl.1.0.0.UPF

CELL_PARAMETERS (angstrom) 
        9.7463216782         0.0000000000         0.0000000000
        0.0000000000        10.4574394226         0.0000000000
        0.0000000000       -13.3116235733        23.0564083602

ATOMIC_POSITIONS (angstrom)
Zn               1.2182900000        1.3071800000        0.7547010000    0   0   0
Zn               1.2182900000        6.5359000000        0.7547010000    0   0   0
Zn               0.5060240212       -0.0022789806        3.6495966276
Zn               0.5070453662        5.2309803046        3.6460619840
Zn               1.2177201884       -1.3047939377        6.0914312189
Zn               1.2139951602        3.9218205253        6.0868830013
Zn               1.2182900000        3.9215400000        0.7547010000    0   0   0
Zn               1.2182900000        9.1502600000        0.7547010000    0   0   0
Zn               0.5051112831        2.6167974645        3.6467691730
Zn               0.5068379717        7.8422290900        3.6456283585
Zn               1.2144620148        1.3068574468        6.0789755188
Zn               1.2147638888        6.5362814028        6.0835098654
Zn               6.0914510000        1.3071800000        0.7547010000    0   0   0
Zn               6.0914510000        6.5359000000        0.7547010000    0   0   0
Zn               5.3890032717       -0.0015023091        3.6366057049
Zn               5.3853792965        5.2292364306        3.6425156102
Zn               6.0907824645       -1.3069872830        6.0833470606
Zn               6.0888749888        3.9203102008        6.0788813688
Zn               6.0914510000        3.9215400000        0.7547010000    0   0   0
Zn               6.0914510000        9.1502600000        0.7547010000    0   0   0
Zn               5.3908749709        2.6159432048        3.6308846080
Zn               5.3866062397        7.8425542542        3.6405561447
Zn               6.0897584964        1.3066959872        6.0763993197
Zn               6.0906971005        6.5357199803        6.0777590445
Zn               3.6548710000        0.0000000000        1.5094010000    0   0   0
Zn               3.6548710000        5.2287200000        1.5094010000    0   0   0
Zn               2.8562622241       -1.3101951222        3.6843970884
Zn               2.8538227101        3.9278369832        3.6827845761
Zn               3.6575704652       -2.6151624053        5.9978393565
Zn               3.6625724471        2.6224040376        5.9480324114
Zn               3.6548710000        2.6143600000        1.5094010000    0   0   0
Zn               3.6548710000        7.8430800000        1.5094010000    0   0   0
Zn               2.8512561268        1.3057536684        3.6797580197
Zn               2.8607412658        6.5365200758        3.6858855742
Zn               3.6673950140       -0.0038663940        5.9685609752
Zn               3.6576653656        5.2322453658        5.9958992407
Zn               8.5280310000        0.0000000000        1.5094010000    0   0   0
Zn               8.5280310000        5.2287200000        1.5094010000    0   0   0
Zn               7.7412152111       -1.3082374689        3.6944979089
Zn               7.7388159709        3.9227510519        3.6950366073
Zn               8.5333496580       -2.6140905358        6.0077629348
Zn               8.5317187106        2.6151021603        6.0050822549
Zn               8.5280310000        2.6143600000        1.5094010000    0   0   0
Zn               8.5280310000        7.8430800000        1.5094010000    0   0   0
Zn               7.7390941717        1.3077400726        3.6926491589
Zn               7.7411688103        6.5362645903        3.6934984780
Zn               8.5299912817       -0.0007376676        6.0055592879
Zn               8.5310602797        5.2288126214        6.0069310287
C                1.0935023404        1.0797033095       14.2271754977
C                1.7785254938        1.1707378769       12.9819688851
C                3.0713865053        1.7269475154       12.9129373224
C                1.1709899760        0.7175313013       11.7938173838
C                3.7309801029        1.8310436660       11.6984348318
C                1.8291387157        0.8229084583       10.5786749663
C                3.1219583705        1.3861555344       10.5053953674
N                0.5283270897        1.0144973370       15.2472247205
N                3.7878585850        1.4526894462        9.3030101318
H                3.2508429595        1.3647936999        8.4436259617
H                4.5904117639        2.0666960173        9.2234189343
H                0.1703025018        0.2873718876       11.8365620254
H                3.5533357667        2.0773506246       13.8256204662
H                1.3451967858        0.4716209652        9.6647401299
H                4.7322397851        2.2648074981       11.6632502370

K_POINTS automatic 
  3 3 1  0 0 0  

