&CONTROL
  calculation = 'scf'    
  restart_mode = 'from_scratch' 
  prefix = 'Zn002_4x4x2_primitive_14Avacumn_bridgesite_tilted_parallel_ABN'  
  outdir = './tmp'       
  pseudo_dir = '/home/ys/qepseudo/SSSP_1.3.0_PBE_efficiency' 
  tprnfor = .true.        
  tstress = .true.       
  verbosity = 'high'      
  max_seconds   =  1.72800e+05 
/

&SYSTEM
  ibrav = 0           
  nat = 79            
  ntyp = 4            
  ecutwfc = 30.0     
  ecutrho = 120.0    
  occupations = 'smearing'
  smearing = 'mv'     
  degauss = 0.02      
  nosym = .TRUE.
/

&ELECTRONS
  conv_thr = 7.35e-7        
  electron_maxstep = 200
  mixing_beta = 0.7   
  diagonalization = 'david'  
  startingwfc = "atomic+random"
  startingpot = "atomic"
/

&IONS
  ion_dynamics = 'bfgs' 
/

&CELL
  cell_dofree = 'all'   
/

ATOMIC_SPECIES
  Zn  65.38  Zn_pbe_v1.uspp.F.UPF  
  C  12.0107   C.pbe-n-kjpaw_psl.1.0.0.UPF  
  N  14.0067   N.pbe-n-radius_5.UPF  
  H  1.008   H.pbe-rrkjus_psl.1.0.0.UPF  

CELL_PARAMETERS (angstrom) 
       10.4574394226         0.0000000000         0.0000000000
       -5.2287197113         9.0564081985         0.0000000000
        0.0000000000         0.0000000000        23.7463226318

ATOMIC_POSITIONS (angstrom)  
Zn -0.0000000130 1.5094013740 1.2182902590
Zn 5.2287196980 1.5094013740 1.2182902590
Zn 0.0011120427 1.5098156786 6.1721139700
Zn 5.2276298567 1.5096812409 6.1878303447
Zn -1.3071799410 3.7735034240 1.2182902590
Zn 3.9215397700 3.7735034240 1.2182902590
Zn -1.3069300877 3.7744055475 6.1790147181
Zn 3.9211654507 3.7735432858 6.1841575930
Zn -2.6143598690 6.0376054730 1.2182902590
Zn 2.6143598420 6.0376054730 1.2182902590
Zn -2.6142664897 6.0378510255 6.1861027382
Zn 2.6141756116 6.0366437837 6.1776090524
Zn -3.9215397970 8.3017075230 1.2182902590
Zn 1.3071799140 8.3017075230 1.2182902590
Zn -3.9206627632 8.3013971165 6.1799331037
Zn 1.3061892394 8.3010083570 6.1815705960
Zn 2.6143598430 1.5094013740 1.2182902590
Zn 7.8430795540 1.5094013740 1.2182902590
Zn 2.6139064777 1.5091536489 6.1808539610
Zn 7.8434993133 1.5104311852 6.1795685079
Zn 1.3071799150 3.7735034240 1.2182902590
Zn 6.5358996260 3.7735034240 1.2182902590
Zn 1.3068490933 3.7733862370 6.1747897063
Zn 6.5361293872 3.7744930338 6.1877720625
Zn -0.0000000130 6.0376054730 1.2182902590
Zn 5.2287196980 6.0376054730 1.2182902590
Zn -0.0010277368 6.0371123597 6.1810339429
Zn 5.2296452053 6.0375740856 6.1834586640
Zn -1.3071799410 8.3017075230 1.2182902590
Zn 3.9215397700 8.3017075230 1.2182902590
Zn -1.3082407216 8.3010985074 6.1862800640
Zn 3.9229243575 8.3012795558 6.1747242960
Zn 1.3071799410 0.7547006760 3.6548707760
Zn 6.5358996520 0.7547006760 3.6548707760
Zn 1.3031989153 0.7524985209 8.7039059583
Zn 6.5336643848 0.7540420681 8.7088289768
Zn 0.0000000130 3.0188027250 3.6548707760
Zn 5.2287197240 3.0188027250 3.6548707760
Zn -0.0043299851 3.0176042550 8.7056867462
Zn 5.2270938222 3.0167427195 8.7061383002
Zn -1.3071799150 5.2829047750 3.6548707760
Zn 3.9215397960 5.2829047750 3.6548707760
Zn -1.3103202179 5.2820603175 8.7115303382
Zn 3.9169989638 5.2839969445 8.6599611968
Zn -2.6143598430 7.5470068250 3.6548707760
Zn 2.6143598680 7.5470068250 3.6548707760
Zn -2.6172691841 7.5457185198 8.7108363110
Zn 2.6102355978 7.5475503055 8.7073716732
Zn 3.9215397970 0.7547006760 3.6548707760
Zn 9.1502595080 0.7547006760 3.6548707760
Zn 3.9187232295 0.7523970179 8.7111411029
Zn 9.1472966713 0.7539705371 8.7023097672
Zn 2.6143598690 3.0188027250 3.6548707760
Zn 7.8430795800 3.0188027250 3.6548707760
Zn 2.6087250017 3.0154887473 8.6729810005
Zn 7.8409999527 3.0179490021 8.7087610457
Zn 1.3071799410 5.2829047750 3.6548707760
Zn 6.5358996520 5.2829047750 3.6548707760
Zn 1.3019647706 5.2827678923 8.7109260640
Zn 6.5340789716 5.2820192352 8.7117656872
Zn 0.0000000130 7.5470068250 3.6548707760
Zn 5.2287197240 7.5470068250 3.6548707760
Zn -0.0032199980 7.5464222443 8.7124245819
Zn 5.2261422051 7.5474648087 8.7033008720
C 1.0026218492 6.0450586771 17.0102990304
C 1.6657650258 5.6611491335 15.8093722134
C 1.3920799591 4.4166408472 15.2024296500
C 2.6087445514 6.5207619888 15.2059589869
C 3.2568965904 6.1485945225 14.0385229729
C 2.0402809818 4.0442852360 14.0344897077
C 2.9872788683 4.9018829198 13.4289280734
N 0.4570609019 6.3659813038 17.9995668441
N 3.6770733952 4.5088987936 12.3037416211
H 4.1573504028 5.2240410806 11.7582269751
H 3.3000620326 3.7453952092 11.7430670679
H 0.6626233187 3.7441304203 15.6630903585
H 2.8261468478 7.4871240850 15.6698587042
H 3.9932463296 6.8215195273 13.5861718932
H 1.8251392770 3.0721395326 13.5783707038

K_POINTS automatic 
  3 3 1  0 0 0  

