&CONTROL
  calculation = 'scf'    
  restart_mode = 'from_scratch' 
  prefix = 'Zn002_4x4x2_primitive_14Avacumn_topsite_upright_ABN'  
  outdir = './tmp'       
  pseudo_dir = '/home/ys/qepseudo/SSSP_1.3.0_PBE_efficiency' 
  tprnfor = .true.        
  tstress = .true.       
  verbosity = 'high'      
  max_seconds   =  1.72800e+05 
/

&SYSTEM
  ibrav = 0           
  nat = 79            
  ntyp = 4            
  ecutwfc = 30.0     
  ecutrho = 120.0   
  occupations = 'smearing'
  smearing = 'mv'     
  degauss = 0.02      
  nosym = .TRUE.
/

&ELECTRONS
  conv_thr = 7.35e-7        
  electron_maxstep = 200
  mixing_beta = 0.7   
  diagonalization = 'david'  
  startingwfc = "atomic+random"
  startingpot = "atomic"
/

&IONS
  ion_dynamics = 'bfgs' 
/

&CELL
  cell_dofree = 'all'   
/

ATOMIC_SPECIES
  Zn  65.38  Zn_pbe_v1.uspp.F.UPF  
  C  12.0107   C.pbe-n-kjpaw_psl.1.0.0.UPF  
  N  14.0067   N.pbe-n-radius_5.UPF  
  H  1.008   H.pbe-rrkjus_psl.1.0.0.UPF  

CELL_PARAMETERS (angstrom) 
       10.4574394226         0.0000000000         0.0000000000
       -5.2287197113         9.0564081985         0.0000000000
        0.0000000000         0.0000000000        23.7463226318

ATOMIC_POSITIONS (angstrom)  
Zn -0.0000000130 1.5094013740 1.2182902590
Zn 5.2287196980 1.5094013740 1.2182902590
Zn 0.0011120427 1.5098156786 6.1721139700
Zn 5.2276298567 1.5096812409 6.1878303447
Zn -1.3071799410 3.7735034240 1.2182902590
Zn 3.9215397700 3.7735034240 1.2182902590
Zn -1.3069300877 3.7744055475 6.1790147181
Zn 3.9211654507 3.7735432858 6.1841575930
Zn -2.6143598690 6.0376054730 1.2182902590
Zn 2.6143598420 6.0376054730 1.2182902590
Zn -2.6142664897 6.0378510255 6.1861027382
Zn 2.6141756116 6.0366437837 6.1776090524
Zn -3.9215397970 8.3017075230 1.2182902590
Zn 1.3071799140 8.3017075230 1.2182902590
Zn -3.9206627632 8.3013971165 6.1799331037
Zn 1.3061892394 8.3010083570 6.1815705960
Zn 2.6143598430 1.5094013740 1.2182902590
Zn 7.8430795540 1.5094013740 1.2182902590
Zn 2.6139064777 1.5091536489 6.1808539610
Zn 7.8434993133 1.5104311852 6.1795685079
Zn 1.3071799150 3.7735034240 1.2182902590
Zn 6.5358996260 3.7735034240 1.2182902590
Zn 1.3068490933 3.7733862370 6.1747897063
Zn 6.5361293872 3.7744930338 6.1877720625
Zn -0.0000000130 6.0376054730 1.2182902590
Zn 5.2287196980 6.0376054730 1.2182902590
Zn -0.0010277368 6.0371123597 6.1810339429
Zn 5.2296452053 6.0375740856 6.1834586640
Zn -1.3071799410 8.3017075230 1.2182902590
Zn 3.9215397700 8.3017075230 1.2182902590
Zn -1.3082407216 8.3010985074 6.1862800640
Zn 3.9229243575 8.3012795558 6.1747242960
Zn 1.3071799410 0.7547006760 3.6548707760
Zn 6.5358996520 0.7547006760 3.6548707760
Zn 1.3082010515 0.7561547440 8.7082255215
Zn 6.5393887235 0.7532091215 8.7061177855
Zn 0.0000000130 3.0188027250 3.6548707760
Zn 5.2287197240 3.0188027250 3.6548707760
Zn 0.0027241359 3.0193035087 8.7055660958
Zn 5.2289132710 3.0206309782 8.5989598816
Zn -1.3071799150 5.2829047750 3.6548707760
Zn 3.9215397960 5.2829047750 3.6548707760
Zn -1.3040378028 5.2832678412 8.7103113288
Zn 3.9212777737 5.2845235467 8.7121686470
Zn -2.6143598430 7.5470068250 3.6548707760
Zn 2.6143598680 7.5470068250 3.6548707760
Zn -2.6129793542 7.5477150608 8.7090900115
Zn 2.6166807651 7.5470378565 8.7059143509
Zn 3.9215397970 0.7547006760 3.6548707760
Zn 9.1502595080 0.7547006760 3.6548707760
Zn 3.9210180950 0.7526807925 8.6902230006
Zn 9.1524220303 0.7553486511 8.7052937793
Zn 2.6143598690 3.0188027250 3.6548707760
Zn 7.8430795800 3.0188027250 3.6548707760
Zn 2.6143725691 3.0208629269 8.7111797641
Zn 7.8474837101 3.0189838249 8.7067649334
Zn 1.3071799410 5.2829047750 3.6548707760
Zn 6.5358996520 5.2829047750 3.6548707760
Zn 1.3094468025 5.2833181941 8.7075795456
Zn 6.5385263983 5.2862932741 8.6972291814
Zn 0.0000000130 7.5470068250 3.6548707760
Zn 5.2287197240 7.5470068250 3.6548707760
Zn 0.0023626122 7.5463335056 8.7117657357
Zn 5.2296473702 7.5485779164 8.7082202209
C 6.1750981741 2.3883875536 17.4968076287
C 5.9595847498 2.5145110816 16.0954759082
C 5.2436351306 1.5247286964 15.3875095362
C 6.4548047444 3.6311272518 15.3871031334
C 6.2287891594 3.7607886301 14.0270744352
C 5.0199026502 1.6519623009 14.0271780880
C 5.5002905824 2.7772669091 13.3193419030
N 6.3524850951 2.2809030135 18.6528628497
N 5.2085229963 2.9431483043 11.9875874674
H 5.7473500422 3.6200034863 11.4476741003
H 4.8961161781 2.1359449191 11.4480406492
H 4.8617190488 0.6531765915 15.9263284877
H 7.0150399634 4.4022694943 15.9235492718
H 6.6082787499 4.6384934604 13.4931038360
H 4.4581286780 0.8781166563 13.4933226557

K_POINTS automatic 
  3 3 1  0 0 0  

