&CONTROL
  calculation = 'relax'    
  restart_mode ='from_scratch' 
  prefix = 'Zn101_3layer_ptoluidine_relax'  
  outdir = './tmp'       
  pseudo_dir = '/home/ys/qepseudo/SSSP_1.3.0_PBE_efficiency' 
  tprnfor = .true.        
  tstress = .true.       
  verbosity = 'high'      
  etot_conv_thr = 5.0e-5  
  forc_conv_thr =  1.0e-3
  max_seconds   =  1.72800e+06
  nstep         = 300          
/

&SYSTEM
  ibrav = 0           
  nat = 62            
  ntyp = 4            
  ecutwfc = 40.0
  ecutrho = 280.0    
  occupations = 'smearing'
  smearing = 'mv'     
  nosym = .TRUE.
  degauss = 0.02      
  vdw_corr='grimme-d3'
/

&ELECTRONS
  conv_thr = 1e-6 
  electron_maxstep = 200
  mixing_beta = 0.4   
  diagonalization = 'david'  
  startingwfc = "atomic+random"
  startingpot = "atomic"
/

&IONS
  ion_dynamics = 'bfgs' 
/

&CELL
  cell_dofree = 'all'   
/

ATOMIC_SPECIES
  Zn  65.38  Zn_pbe_v1.uspp.F.UPF  
  N      14.00674  N.pbe-n-radius_5.UPF
  C      12.01070  C.pbe-n-kjpaw_psl.1.0.0.UPF
  H       1.00794  H.pbe-rrkjus_psl.1.0.0.UPF


CELL_PARAMETERS (angstrom) 
       11.0603027344         0.0000000000         0.0000000000
       -2.4718588623        10.1610999917         0.0000000000
      -46.4560228483       -11.3012106837        22.2132348689
        
ATOMIC_POSITIONS (angstrom)
Zn              -1.0735560000        1.0841420000        1.1977640000    0   0   0
Zn              -2.3094850000        6.1646920000        1.1977640000    0   0   0
Zn              -4.9764908619        0.1397625426        3.7184571101
Zn              -6.2165555952        5.2221527237        3.7105661448
Zn              -9.0327788445       -0.8574907023        5.8468233126
Zn             -10.2660525647        4.2227098664        5.7737973804
Zn              -1.6915200000        3.6244170000        1.1977640000    0   0   0
Zn              -2.9274500000        8.7049670000        1.1977640000    0   0   0
Zn              -5.6060542447        2.6797427870        3.7168901752
Zn              -6.8287390339        7.7626457811        3.7158243992
Zn              -9.6437887786        1.6801273345        5.8144286895
Zn             -10.8959932442        6.7592908502        5.8079277489
Zn               4.4565960000        1.0841420000        1.1977640000    0   0   0
Zn               3.2206660000        6.1646920000        1.1977640000    0   0   0
Zn               0.5162766742        0.1289178674        3.5620619688
Zn              -0.7436898274        5.2127363338        3.5158042115
Zn              -3.2616192279       -0.7859709123        5.6864845492
Zn              -4.5046949893        4.2900252942        5.7027598320
Zn               3.8386310000        3.6244170000        1.1977640000    0   0   0
Zn               2.6027020000        8.7049670000        1.1977640000    0   0   0
Zn              -0.0955067163        2.6744480300        3.5548260430
Zn              -1.3394821252        7.7541877491        3.5577891584
Zn              -3.8816157280        1.7559369339        5.6931124375
Zn              -5.1183165530        6.8312096123        5.6939984638
Zn               1.6915200000        0.4114910000        0.8555450000    0   0   0
Zn               0.4555910000        5.4920410000        0.8555450000    0   0   0
Zn              -2.3331908331       -0.5712961669        3.0002743578
Zn              -3.5753841737        4.5076300235        3.0146636102
Zn              -6.4679190292       -1.5703840370        5.2966689632
Zn              -7.6748108321        3.5175603841        5.3783298964
Zn               1.0735560000        2.9517660000        0.8555450000    0   0   0
Zn              -0.1623740000        8.0323160000        0.8555450000    0   0   0
Zn              -2.9558449367        1.9673395460        3.0052722144
Zn              -4.1918310289        7.0492918152        3.0052632094
Zn              -7.0701021961        0.9721010514        5.3418834041
Zn              -8.3067555060        6.0571033771        5.3229411176
Zn               7.2216720000        0.4114910000        0.8555450000    0   0   0
Zn               5.9857420000        5.4920410000        0.8555450000    0   0   0
Zn               3.1691916840       -0.5804691514        3.0331360028
Zn               1.9469675922        4.5091384026        3.0413766104
Zn              -0.6768669676       -1.4994475492        5.4711908157
Zn              -1.8996368275        3.5856540843        5.4802001252
Zn               6.6037070000        2.9517660000        0.8555450000    0   0   0
Zn               5.3677780000        8.0323160000        0.8555450000    0   0   0
Zn               2.5727990512        1.9654048666        3.0340864021
Zn               1.3132932142        7.0430444611        3.0369273257
Zn              -1.2927986747        1.0422698331        5.4677288001
Zn              -2.5284362369        6.1212179256        5.4655362012
C               -8.8010563066       -1.1038766308       10.6776646420
C              -10.7565614750        1.7947416853        9.5979147366
C               -8.0554509957        1.1160701946        9.9549884204
C               -9.6542249010        2.7557830800        9.3956161873
C               -9.1581696497        0.1138540970       10.1944358233
C               -8.3042066934        2.3781546837        9.5895184107
C              -10.5002484651        0.5305602514        9.9659961796
N               -9.9465054805        3.9843828848        8.9510588024
H               -7.7507548705       -1.3041752461       10.8765732607
H              -11.7624124899        2.2049554920        9.4461808010
H               -7.0421679535        0.7274743247       10.1202685962
H               -9.5378461738       -1.8798395769       10.8750115695
H               -9.1763751704        4.6150421830        8.7460817881
H              -10.8880004045        4.2872347757        8.7162713964

K_POINTS automatic 
  3 3 1  0 0 0  

