! B3LYP def2-SVP SP TightSCF ALLPOP KEEPDENS 

%maxcore 5000

%pal
nprocs 20
end

* xyz 0 1
  O           2.54418373712076     -1.09253526039485      1.27284473046203
  O           2.87293070831913     -0.23696798124823     -0.69033943641067
  N           2.18715061781943     -0.42712545079931      0.30773627181535
  N          -2.92126765266310      1.91436239907590      0.45254789987729
  C           0.86271197317958      0.17678991931903      0.34876812947646
  C          -1.69119505505588      1.34013569458270      0.42780315161926
  C           0.04694613370305     -0.01686330902978      1.46951930519730
  C           0.41844936199523      0.94488675241827     -0.73413215933208
  C          -1.21353011276137      0.55676964358866      1.50931693016870
  C          -0.84070664025513      1.51852792202694     -0.69545001059573
  H           0.42311349959556     -0.62046527375665      2.29507710870976
  H           1.07810533231790      1.07586820358648     -1.59154417221932
  H          -1.85198627842362      0.40670087985022      2.38387382937803
  H          -1.20493699865437      2.12003240520009     -1.52955993058042
  H          -3.53908570752995      1.76091985125945      1.23622354554458
  H          -3.25516863301107      2.44184767979611     -0.35325440703627
  O          -3.45789889822024      3.37222509775831     -2.03509863283213
  H          -3.36157350030701      2.83166636476226     -2.83187578502573
  H          -2.83176849086878      4.09947502470426     -2.15997109701642
* 
