&CONTROL
  calculation = 'relax'    
  restart_mode ='from_scratch' 
  prefix = '03_Zn101_ABN_topsite_tilted'  
  outdir = './tmp'       
  pseudo_dir = '/home/yongsang/Research/PSID_server_room/qe/[00]QE/qepseudo/SSSP_1.3.0_PBE_efficiency' 
  tprnfor = .true.        
  tstress = .true.       
  verbosity = 'high'      
  etot_conv_thr = 1.0e-5  
  forc_conv_thr =  5.0e-4 
  max_seconds   =  1.72800e+06
  nstep         = 500          
/

&SYSTEM
  ibrav = 0           
  nat = 63       
  ntyp = 4
  ecutwfc = 40.0
  ecutrho = 280.0    
  occupations = 'smearing'
  smearing = 'mv'     
  nosym = .TRUE.
  degauss = 0.02      
  vdw_corr='grimme-d3'
/

&ELECTRONS
  conv_thr = 1e-6        
  electron_maxstep = 200
  mixing_beta = 0.4   
  diagonalization = 'david'  
  startingwfc = "atomic+random"
  startingpot = "atomic"
/

&IONS
  ion_dynamics = 'bfgs' 
/

&CELL
  cell_dofree = 'all'   
/

ATOMIC_SPECIES
  Zn  65.38  Zn_pbe_v1.uspp.F.UPF  
  N      14.00674  N.pbe-n-radius_5.UPF
  C      12.01070  C.pbe-n-kjpaw_psl.1.0.0.UPF
  H       1.00794  H.pbe-rrkjus_psl.1.0.0.UPF

CELL_PARAMETERS (angstrom) 
       11.0603027344         0.0000000000         0.0000000000
       -2.4718588623        10.1610999917         0.0000000000
      -46.4560228483       -11.3012106837        22.2132348689
        
ATOMIC_POSITIONS (angstrom)
Zn              -1.0735560000        1.0841420000        1.1977640000    0   0   0
Zn              -2.3094850000        6.1646920000        1.1977640000    0   0   0
Zn              -4.2491287268        0.3059952943        4.3305030223
Zn              -5.5025152413        5.3793492845        4.3370209784
Zn              -8.1708085426       -0.6780616032        5.8124234923
Zn              -9.3838962684        4.4225924314        5.9661680373
Zn              -1.6915200000        3.6244170000        1.1977640000    0   0   0
Zn              -2.9274500000        8.7049670000        1.1977640000    0   0   0
Zn              -4.8808232476        2.8445776395        4.3337574582
Zn              -6.1073709464        7.9214604993        4.3292297939
Zn              -8.8084660125        1.8546796428        5.7904320619
Zn             -10.0456865742        6.9527654687        5.7935384820
Zn               4.4565960000        1.0841420000        1.1977640000    0   0   0
Zn               3.2206660000        6.1646920000        1.1977640000    0   0   0
Zn               0.3955091605        0.0923907763        3.4741573845
Zn              -0.8368413599        5.1811936656        3.4441179497
Zn              -2.0918771903       -0.5070118467        5.6544620435
Zn              -3.3445450661        4.5727653348        5.6586949272
Zn               3.8386310000        3.6244170000        1.1977640000    0   0   0
Zn               2.6027020000        8.7049670000        1.1977640000    0   0   0
Zn              -0.2132378929        2.6231190700        3.4470763419
Zn              -1.4617149563        7.7155928121        3.4723903445
Zn              -2.7198598354        2.0232229937        5.6550391256
Zn              -3.9506377927        7.1103939534        5.6590474947
Zn               1.6915200000        0.4114910000        0.8555450000    0   0   0
Zn               0.4555910000        5.4920410000        0.8555450000    0   0   0
Zn              -2.2444136241       -0.5460175647        2.8723324102
Zn              -3.4970417676        4.5285865358        2.8634179060
Zn              -6.0718268795       -1.4940514153        4.3858919959
Zn              -7.3368136804        3.5910341003        4.4528703854
Zn               1.0735560000        2.9517660000        0.8555450000    0   0   0
Zn              -0.1623740000        8.0323160000        0.8555450000    0   0   0
Zn              -2.8699639791        1.9961434421        2.8648623106
Zn              -4.1048707673        7.0693583224        2.8718350941
Zn              -6.6933824322        1.0504020523        4.3863349559
Zn              -7.9472113210        6.1230388629        4.4485743276
Zn               7.2216720000        0.4114910000        0.8555450000    0   0   0
Zn               5.9857420000        5.4920410000        0.8555450000    0   0   0
Zn               2.9626119561       -0.6317621505        2.9283057243
Zn               1.7422618420        4.4550490970        2.9389031772
Zn               0.4022761828       -1.2410865865        5.8322358087
Zn              -0.8512622309        3.8369247149        5.7225386365
Zn               6.6037070000        2.9517660000        0.8555450000    0   0   0
Zn               5.3677780000        8.0323160000        0.8555450000    0   0   0
Zn               2.3697577812        1.9195493695        2.9245624322
Zn               1.1300043716        6.9914586541        2.9242224029
Zn              -0.2215529535        1.3107434555        5.8468505040
Zn              -1.4545399815        6.3678086087        5.8344814161
C               -5.9012004813        5.5063845353       12.3641110268
C               -6.8777947761        5.2014161058       11.3706157284
C               -7.7451833322        6.2002042123       10.8893868763
C               -6.9940428829        3.8936776276       10.8630952527
C               -8.7077331049        5.8942335967        9.9375061281
C               -7.9575208043        3.5905008388        9.9112561523
C               -8.8377093174        4.5830046069        9.4468305569
N               -5.1035022880        5.7608589599       13.1776103180
N               -9.7859293671        4.2848313839        8.4643001585
H              -10.0787726131        3.3094666309        8.4075797196
H              -10.5846088209        4.9161301504        8.4145110099
H               -6.3231960690        3.1174577137       11.2289069514
H               -7.6593513767        7.2150466471       11.2781174741
H               -8.0350482568        2.5756475753        9.5205044629
H               -9.3730141635        6.6756258572        9.5691228701

K_POINTS automatic 
  3 3 1  0 0 0  

