&CONTROL
  calculation = 'relax'    
  restart_mode ='from_scratch' 
  prefix = 'Zn101_3layer_ptoluidine_relax'  
  outdir = './tmp'       
  pseudo_dir = '/home/yongsang/Research/PSID_server_room/qe/[00]QE/qepseudo/SSSP_1.3.0_PBE_efficiency' 
  tprnfor = .true.        
  tstress = .true.       
  verbosity = 'high'      
  etot_conv_thr = 3.0e-5  
  forc_conv_thr =  8.0e-4
  max_seconds   =  1.72800e+06
  nstep         = 300          
/

&SYSTEM
  ibrav = 0           
  nat = 65            
  ntyp = 4            
  ecutwfc = 40.0
  ecutrho = 280.0    
  occupations = 'smearing'
  smearing = 'mv'     
  nosym = .TRUE.
  degauss = 0.02      
  vdw_corr='grimme-d3'
/

&ELECTRONS
  conv_thr = 1e-6 
  electron_maxstep = 200
  mixing_beta = 0.4   
  diagonalization = 'david'  
  startingwfc = "atomic+random"
  startingpot = "atomic"
/

&IONS
  ion_dynamics = 'bfgs' 
/

&CELL
  cell_dofree = 'all'   
/

ATOMIC_SPECIES
  Zn  65.38  Zn_pbe_v1.uspp.F.UPF  
  N      14.00674  N.pbe-n-radius_5.UPF
  C      12.01070  C.pbe-n-kjpaw_psl.1.0.0.UPF
  H       1.00794  H.pbe-rrkjus_psl.1.0.0.UPF


CELL_PARAMETERS (angstrom) 
       11.0603027344         0.0000000000         0.0000000000
       -2.4718588623        10.1610999917         0.0000000000
      -46.4560228483       -11.3012106837        22.2132348689
        
ATOMIC_POSITIONS (angstrom)
Zn              -1.0735560000        1.0841420000        1.1977640000    0   0   0
Zn              -2.3094850000        6.1646920000        1.1977640000    0   0   0
Zn              -4.7953166935        0.1325180786        3.8181024082
Zn              -6.0687789516        5.2296421729        3.7938465502
Zn              -8.8728290608       -0.8613815474        5.8220288201
Zn             -10.0867925512        4.2568627810        5.7668304722
Zn              -1.6915200000        3.6244170000        1.1977640000    0   0   0
Zn              -2.9274500000        8.7049670000        1.1977640000    0   0   0
Zn              -5.4877185371        2.6770330783        3.7380039113
Zn              -6.6205018304        7.7679176234        3.9134132722
Zn              -9.4090248483        1.6373768370        5.6643291894
Zn             -10.7848311769        6.8246575614        5.6814627281
Zn               4.4565960000        1.0841420000        1.1977640000    0   0   0
Zn               3.2206660000        6.1646920000        1.1977640000    0   0   0
Zn               0.6683032610        0.1148204089        3.5026974094
Zn              -0.5278759477        5.2037165219        3.5460109699
Zn              -3.0683575213       -0.7963637186        5.8599278084
Zn              -4.4001032859        4.2784124266        5.8643174623
Zn               3.8386310000        3.6244170000        1.1977640000    0   0   0
Zn               2.6027020000        8.7049670000        1.1977640000    0   0   0
Zn               0.1603441528        2.6921979395        3.6553382370
Zn              -1.2495265014        7.7419317578        3.4289661958
Zn              -3.7916992658        1.7424529830        5.8640783190
Zn              -4.9197174831        6.8207759323        5.8543860632
Zn               1.6915200000        0.4114910000        0.8555450000    0   0   0
Zn               0.4555910000        5.4920410000        0.8555450000    0   0   0
Zn              -2.3280077903       -0.5909317485        2.9460972135
Zn              -3.6090880341        4.4938704719        2.9568927404
Zn              -6.4049346635       -1.5855870763        5.0348357044
Zn              -7.6124025573        3.5077816760        5.0895523279
Zn               1.0735560000        2.9517660000        0.8555450000    0   0   0
Zn              -0.1623740000        8.0323160000        0.8555450000    0   0   0
Zn              -2.9842300485        1.9499344357        2.9315466898
Zn              -4.1908848327        7.0366513400        2.9794193196
Zn              -6.9510455029        0.9491658620        5.1180378486
Zn              -8.2785388460        6.0423113365        5.0613939221
Zn               7.2216720000        0.4114910000        0.8555450000    0   0   0
Zn               5.9857420000        5.4920410000        0.8555450000    0   0   0
Zn               3.2263411235       -0.5720742514        2.9462705450
Zn               2.0257108581        4.5097607839        2.9006908756
Zn              -0.5854674232       -1.5263823862        5.1806067548
Zn              -1.9988373473        3.5071713179        4.9783247288
Zn               6.6037070000        2.9517660000        0.8555450000    0   0   0
Zn               5.3677780000        8.0323160000        0.8555450000    0   0   0
Zn               2.6559483755        1.9606009101        2.9200358984
Zn               1.3642708534        7.0515884824        2.9114498718
Zn              -1.3444564568        0.9854262131        5.0039207158
Zn              -2.5135889183        6.0650853159        5.0677683565
C               -8.7453003604       -1.0605145505       10.2223403258
C              -10.7985292968        1.8635992573        8.8596064468
C               -8.1264137010        1.2065772538        9.2880266101
C               -9.8041994711        2.8108575298        8.5921814616
C               -9.1140262730        0.2687431242        9.6202632690
C               -8.4615416718        2.4588117408        8.7798333799
C              -10.4482077705        0.6146075547        9.3752441450
N              -10.1319545216        4.0810674220        8.0258096358
H               -8.0915385569       -0.9235652729       11.0956347745
H              -11.8458492303        2.1022118852        8.6735638573
H               -7.0740733137        0.9536859558        9.4318890486
H               -9.6350327156       -1.6088444406       10.5539436943
H               -9.4315141682        4.7950265793        8.2337537033
H              -11.0469940254        4.4282546838        8.3131618553
H               -7.6784773730        3.1750587183        8.5328980526
H              -11.2323692392       -0.1098830684        9.6032202134
H               -8.2103797130       -1.7043637657        9.5064742837

K_POINTS automatic 
  3 3 1  0 0 0  

