&CONTROL
  calculation = 'relax'    
  restart_mode ='from_scratch' 
  prefix = '04_Zn101_ABN_lean'  
  outdir = './tmp'       
  pseudo_dir = '/home/yongsang/Research/PSID_server_room/qe/[00]QE/qepseudo/SSSP_1.3.0_PBE_efficiency' 
  tprnfor = .true.        
  tstress = .true.       
  verbosity = 'high'      
  etot_conv_thr = 1.0e-5  
  forc_conv_thr =  5.0e-4 
  max_seconds   =  1.72800e+06
  nstep         = 500          
/

&SYSTEM
  ibrav = 0           
  nat = 63       
  ntyp = 4
  ecutwfc = 40.0
  ecutrho = 280.0    
  occupations = 'smearing'
  smearing = 'mv'     
  nosym = .TRUE.
  degauss = 0.02      
  vdw_corr='grimme-d3'
/

&ELECTRONS
  conv_thr = 1e-6        
  electron_maxstep = 200
  mixing_beta = 0.4   
  diagonalization = 'david'  
  startingwfc = "atomic+random"
  startingpot = "atomic"
/

&IONS
  ion_dynamics = 'bfgs' 
/

&CELL
  cell_dofree = 'all'   
/

ATOMIC_SPECIES
  Zn  65.38  Zn_pbe_v1.uspp.F.UPF  
  N      14.00674  N.pbe-n-radius_5.UPF
  C      12.01070  C.pbe-n-kjpaw_psl.1.0.0.UPF
  H       1.00794  H.pbe-rrkjus_psl.1.0.0.UPF

CELL_PARAMETERS (angstrom) 
       11.0603027344         0.0000000000         0.0000000000
       -2.4718588623        10.1610999917         0.0000000000
      -46.4560228483       -11.3012106837        22.2132348689
        
ATOMIC_POSITIONS (angstrom)
Zn              -1.0735560000        1.0841420000        1.1977640000    0   0   0
Zn              -2.3094850000        6.1646920000        1.1977640000    0   0   0
Zn              -4.5390039379        0.2482888699        4.1916342535
Zn              -5.8053415181        5.3438357280        4.2648838733
Zn              -8.5958018629       -0.7587177392        5.8169307985
Zn              -9.9243817940        4.3339648956        5.8183253736
Zn              -1.6915200000        3.6244170000        1.1977640000    0   0   0
Zn              -2.9274500000        8.7049670000        1.1977640000    0   0   0
Zn              -5.2115265696        2.7863461621        4.1631274864
Zn              -6.4207710249        7.8561158018        4.3735625809
Zn              -9.3353951555        1.7767842789        5.6714159169
Zn             -10.4111946660        6.8563168535        5.9875605781
Zn               4.4565960000        1.0841420000        1.1977640000    0   0   0
Zn               3.2206660000        6.1646920000        1.1977640000    0   0   0
Zn               0.3096624111        0.0919694811        3.4090635175
Zn              -0.9656865941        5.1853296878        3.4587005073
Zn              -2.4905162238       -0.5914663132        5.6419750749
Zn              -3.7661912296        4.5214748257        5.6026422661
Zn               3.8386310000        3.6244170000        1.1977640000    0   0   0
Zn               2.6027020000        8.7049670000        1.1977640000    0   0   0
Zn              -0.2798676516        2.6299526687        3.3878832401
Zn              -1.5654649007        7.7014793327        3.4547644303
Zn              -3.2461357908        1.9628667077        5.7426385974
Zn              -4.3130735129        7.0416107531        5.6805305586
Zn               1.6915200000        0.4114910000        0.8555450000    0   0   0
Zn               0.4555910000        5.4920410000        0.8555450000    0   0   0
Zn              -2.3888866023       -0.6014828959        2.8844009143
Zn              -3.6531904557        4.5140568245        2.8754227484
Zn              -6.3473005653       -1.5461934241        4.7242106007
Zn              -7.6394996192        3.5489563179        4.6865685626
Zn               1.0735560000        2.9517660000        0.8555450000    0   0   0
Zn              -0.1623740000        8.0323160000        0.8555450000    0   0   0
Zn              -2.9536799721        1.9898151352        2.9410333045
Zn              -4.3135453220        7.0448374239        2.8900269001
Zn              -6.9812224430        0.9932174010        4.6890392368
Zn              -8.2322154140        6.0529681877        4.7170485039
Zn               7.2216720000        0.4114910000        0.8555450000    0   0   0
Zn               5.9857420000        5.4920410000        0.8555450000    0   0   0
Zn               3.0075304130       -0.6249922755        2.8984958364
Zn               1.6868299716        4.4742751744        2.9187212208
Zn              -0.0041942753       -1.2943112366        5.6903904441
Zn              -1.3422487602        3.7288129891        5.6711528106
Zn               6.6037070000        2.9517660000        0.8555450000    0   0   0
Zn               5.3677780000        8.0323160000        0.8555450000    0   0   0
Zn               2.3995149569        1.9341861284        2.8612451457
Zn               1.0419158364        6.9883030410        2.9976000486
Zn              -0.7599274428        1.2205875771        5.6129446173
Zn              -1.8343094486        6.2859156236        5.8194437925
C               -8.8888775235        4.7730252705        8.9723441830
C               -7.7326315988        3.9987817938        8.6984525046
C               -7.8621624853        2.6261956001        8.4268664421
C               -6.4558056146        4.5971292427        8.6772117495
C               -6.7264094501        1.8633413695        8.1817526846
C               -5.3281636747        3.8250381746        8.4255864712
C               -5.4488442677        2.4415084893        8.2054467041
N               -9.8289545540        5.4397472496        9.1618347069
N               -4.2938588435        1.6696119371        7.9379935961
H               -3.4804864716        1.9439823794        8.4852255824
H               -4.4563875377        0.6630808923        7.9879143882
H               -6.3434099293        5.6702682731        8.8419556251
H               -8.8475079582        2.1501991538        8.4427296892
H               -4.3442002721        4.2983599843        8.3848861536
H               -6.8510884608        0.8040416380        7.9566391568

K_POINTS automatic 
  3 3 1  0 0 0  

