&CONTROL
  calculation = 'relax'    
  restart_mode ='from_scratch' 
  prefix = 'Zn100_3layer_ptoluidine_relax'  
  outdir = './tmp'       
  pseudo_dir = '/home/ys/qepseudo/SSSP_1.3.0_PBE_efficiency' 
  tprnfor = .true.        
  tstress = .true.       
  verbosity = 'high'      
  etot_conv_thr = 5.0e-5  
  forc_conv_thr =  1.0e-3
  max_seconds   =  1.72800e+06
  nstep         = 300          
/

&SYSTEM
  ibrav = 0           
  nat = 65            
  ntyp = 4            
  ecutwfc = 40.0
  ecutrho = 280.0    
  occupations = 'smearing'
  smearing = 'mv'     
  nosym = .TRUE.
  degauss = 0.02      
  vdw_corr='grimme-d3'
/

&ELECTRONS
  conv_thr = 1e-6        
  electron_maxstep = 200
  mixing_beta = 0.4   
  diagonalization = 'david'  
  startingwfc = "atomic+random"
  startingpot = "atomic"
/

&IONS
  ion_dynamics = 'bfgs' 
/

&CELL
  cell_dofree = 'all'   
/

ATOMIC_SPECIES
  Zn  65.38  Zn_pbe_v1.uspp.F.UPF  
  N      14.00674  N.pbe-n-radius_5.UPF
  C      12.01070  C.pbe-n-kjpaw_psl.1.0.0.UPF
  H       1.00794  H.pbe-rrkjus_psl.1.0.0.UPF

CELL_PARAMETERS (angstrom) 
        9.7463216782         0.0000000000         0.0000000000
        0.0000000000        10.4574394226         0.0000000000
        0.0000000000       -13.3116235733        23.0564083602

ATOMIC_POSITIONS (angstrom)  
Zn  1.2182900000  1.3071800000  0.7547010000  0 0 0
Zn  1.2182900000  6.5359000000  0.7547010000  0 0 0
Zn  1.2225350310  -0.0006420359  3.5706508532  1 1 1
Zn  1.2225423776  5.2292954938  3.5699673838  1 1 1
Zn  1.2209234059  -1.3076209083  6.0926811248  1 1 1
Zn  1.2209966269  3.9219896270  6.0928783505  1 1 1
Zn  1.2182900000  3.9215400000  0.7547010000  0 0 0
Zn  1.2182900000  9.1502600000  0.7547010000  0 0 0
Zn  1.2226333523  2.6145541792  3.5708537815  1 1 1
Zn  1.2225301369  7.8431019671  3.5695103797  1 1 1
Zn  1.2210023144  1.3071643175  6.0928670599  1 1 1
Zn  1.2209189966  6.5360671224  6.0926478279  1 1 1
Zn  6.0914510000  1.3071800000  0.7547010000  0 0 0
Zn  6.0914510000  6.5359000000  0.7547010000  0 0 0
Zn  6.0868516435  -0.0006216009  3.5722672270  1 1 1
Zn  6.0868415086  5.2293100849  3.5719329313  1 1 1
Zn  6.0886736078  -1.3076996020  6.0940160969  1 1 1
Zn  6.0886297575  3.9220114826  6.0943238899  1 1 1
Zn  6.0914510000  3.9215400000  0.7547010000  0 0 0
Zn  6.0914510000  9.1502600000  0.7547010000  0 0 0
Zn  6.0867887086  2.6146270334  3.5726610425  1 1 1
Zn  6.0868912166  7.8429790964  3.5712779457  1 1 1
Zn  6.0886547715  1.3071348258  6.0942791758  1 1 1
Zn  6.0886975214  6.5360924805  6.0940921372  1 1 1
Zn  3.6548710000  0.0000000000  1.5094010000  0 0 0
Zn  3.6548710000  5.2287200000  1.5094010000  0 0 0
Zn  3.6500427037  -1.3076772259  3.7908314736  1 1 1
Zn  3.6500425887  3.9221623148  3.7912196419  1 1 1
Zn  3.6518681309  -2.6145168909  6.1685292455  1 1 1
Zn  3.6519171515  2.6147011594  6.1684315794  1 1 1
Zn  3.6548710000  2.6143600000  1.5094010000  0 0 0
Zn  3.6548710000  7.8430800000  1.5094010000  0 0 0
Zn  3.6501141621  1.3066985140  3.7914155525  1 1 1
Zn  3.6499632514  6.5363411705  3.7905807069  1 1 1
Zn  3.6519349693  -0.0002917019  6.1684049063  1 1 1
Zn  3.6518950906  5.2289263450  6.1685568245  1 1 1
Zn  8.5280310000  0.0000000000  1.5094010000  0 0 0
Zn  8.5280310000  5.2287200000  1.5094010000  0 0 0
Zn  8.5332659877  -1.3077588033  3.7924932823  1 1 1
Zn  8.5333340726  3.9220923524  3.7929038815  1 1 1
Zn  8.5312072448  -2.6145116765  6.1684447967  1 1 1
Zn  8.5312149650  2.6146443379  6.1683048173  1 1 1
Zn  8.5280310000  2.6143600000  1.5094010000  0 0 0
Zn  8.5280310000  7.8430800000  1.5094010000  0 0 0
Zn  8.5332640455  1.3067425823  3.7931288226  1 1 1
Zn  8.5333125953  6.5364437853  3.7922187577  1 1 1
Zn  8.5311725651  -0.0003212336  6.1682447824  1 1 1
Zn  8.5312216843  5.2290068355  6.1684774051  1 1 1
C        2.5878400504      2.1422503264      9.8404888110                 
C        3.7550466079      1.3601910577      9.7399892471                 
C        2.6703675470      3.5170965683     10.0367027844                 
C        4.9962300141      2.0132718279      9.8434853312                 
C        3.9036018989      4.1784637622     10.1406204348                 
C        5.0588341706      3.3929710184     10.0389513727                 
C        3.9658579586      5.6695583926     10.3533628997                 
N        3.6801490799     -0.0035875117      9.5471664686                 
H        2.7896464020     -0.4699124470      9.4729711491                 
H        3.4591389834      5.9670280184     11.2845430712                 
H        1.6098301054      1.6605505295      9.7647340528                 
H        4.5141829213     -0.5655634063      9.4741783515                 
H        1.7455145744      4.0948086013     10.1115588856                 
H        5.9176051262      1.4306859937      9.7698168948                 
H        6.0396472285      3.8688099489     10.1156021233                 
H        5.0037370012      6.0233177249     10.4125641481                 
H        3.4744028539      6.2157407137      9.5332508085   

K_POINTS automatic 
  2 2 1  0 0 0  

