&CONTROL
  calculation = 'relax'    
  restart_mode ='from_scratch' 
  prefix = 'Zn101_3layer_relax'  
  outdir = './tmp'       
  pseudo_dir = '/home/ys/qepseudo/SSSP_1.3.0_PBE_efficiency' 
  tprnfor = .true.        
  tstress = .true.       
  verbosity = 'high'      
  etot_conv_thr = 1.0e-5  
  forc_conv_thr =  5.0e-4 
  max_seconds   =  1.72800e+05 
  nstep         = 100          
/

&SYSTEM
  ibrav = 0           
  nat = 48            
  ntyp = 1            
  ecutwfc = 40.0
  ecutrho = 280.0    
  occupations = 'smearing'
  smearing = 'mv'     
  nosym = .TRUE.
  degauss = 0.02      
/

&ELECTRONS
  conv_thr = 1e-6        
  electron_maxstep = 200
  mixing_beta = 0.4   
  diagonalization = 'david'  
  startingwfc = "atomic+random"
  startingpot = "atomic"
/

&IONS
  ion_dynamics = 'bfgs' 
/

&CELL
  cell_dofree = 'all'   
/

ATOMIC_SPECIES
  Zn  65.38  Zn_pbe_v1.uspp.F.UPF  

CELL_PARAMETERS (angstrom) 
       11.0603027344         0.0000000000         0.0000000000
       -2.4718588623        10.1610999917         0.0000000000
      -46.4560228483       -11.3012106837        22.2132348689

ATOMIC_POSITIONS (angstrom)  
Zn  -1.0735560000  1.0841420000  1.1977640000  0 0 0
Zn  -2.3094850000  6.1646920000  1.1977640000  0 0 0
Zn  -5.3677780000  0.0395000000  3.2510720000  1 1 1
Zn  -6.6037070000  5.1200500000  3.2510720000  1 1 1
Zn  -9.6619990000  -1.0051410000  5.3043810000  1 1 1
Zn  -10.8979290000  4.0754090000  5.3043810000  1 1 1
Zn  -1.6915200000  3.6244170000  1.1977640000  0 0 0
Zn  -2.9274500000  8.7049670000  1.1977640000  0 0 0
Zn  -5.9857420000  2.5797750000  3.2510720000  1 1 1
Zn  -7.2216720000  7.6603250000  3.2510720000  1 1 1
Zn  -10.2799640000  1.5351340000  5.3043810000  1 1 1
Zn  -11.5158940000  6.6156830000  5.3043810000  1 1 1
Zn  4.4565960000  1.0841420000  1.1977640000  0 0 0
Zn  3.2206660000  6.1646920000  1.1977640000  0 0 0
Zn  0.1623740000  0.0395000000  3.2510720000  1 1 1
Zn  -1.0735560000  5.1200500000  3.2510720000  1 1 1
Zn  -4.1318480000  -1.0051410000  5.3043810000  1 1 1
Zn  -5.3677780000  4.0754090000  5.3043810000  1 1 1
Zn  3.8386310000  3.6244170000  1.1977640000  0 0 0
Zn  2.6027020000  8.7049670000  1.1977640000  0 0 0
Zn  -0.4555910000  2.5797750000  3.2510720000  1 1 1
Zn  -1.6915200000  7.6603250000  3.2510720000  1 1 1
Zn  -4.7498130000  1.5351340000  5.3043810000  1 1 1
Zn  -5.9857420000  6.6156830000  5.3043810000  1 1 1
Zn  1.6915200000  0.4114910000  0.8555450000  0 0 0
Zn  0.4555910000  5.4920410000  0.8555450000  0 0 0
Zn  -2.6027020000  -0.6331510000  2.9088540000  1 1 1
Zn  -3.8386310000  4.4473990000  2.9088540000  1 1 1
Zn  -6.8969240000  -1.6777930000  4.9621630000  1 1 1
Zn  -8.1328530000  3.4027570000  4.9621630000  1 1 1
Zn  1.0735560000  2.9517660000  0.8555450000  0 0 0
Zn  -0.1623740000  8.0323160000  0.8555450000  0 0 0
Zn  -3.2206660000  1.9071240000  2.9088540000  1 1 1
Zn  -4.4565960000  6.9876740000  2.9088540000  1 1 1
Zn  -7.5148880000  0.8624820000  4.9621630000  1 1 1
Zn  -8.7508180000  5.9430320000  4.9621630000  1 1 1
Zn  7.2216720000  0.4114910000  0.8555450000  0 0 0
Zn  5.9857420000  5.4920410000  0.8555450000  0 0 0
Zn  2.9274500000  -0.6331510000  2.9088540000  1 1 1
Zn  1.6915200000  4.4473990000  2.9088540000  1 1 1
Zn  -1.3667720000  -1.6777930000  4.9621630000  1 1 1
Zn  -2.6027020000  3.4027570000  4.9621630000  1 1 1
Zn  6.6037070000  2.9517660000  0.8555450000  0 0 0
Zn  5.3677780000  8.0323160000  0.8555450000  0 0 0
Zn  2.3094850000  1.9071240000  2.9088540000  1 1 1
Zn  1.0735560000  6.9876740000  2.9088540000  1 1 1
Zn  -1.9847370000  0.8624820000  4.9621630000  1 1 1
Zn  -3.2206660000  5.9430320000  4.9621630000  1 1 1

K_POINTS automatic 
  3 3 1  0 0 0  

