&CONTROL
  calculation = 'relax'    
  restart_mode ='from_scratch' 
  prefix = 'Zn100_3layer_relax'  
  outdir = './tmp'       
  pseudo_dir = '/home/ys/qepseudo/SSSP_1.3.0_PBE_efficiency' 
  tprnfor = .true.        
  tstress = .true.       
  verbosity = 'high'      
  etot_conv_thr = 1.0e-5  
  forc_conv_thr =  5.0e-4 
  max_seconds   =  1.72800e+05 
  nstep         = 100          
/

&SYSTEM
  ibrav = 0           
  nat = 48            
  ntyp = 1            
  ecutwfc = 40.0
  ecutrho = 280.0    
  occupations = 'smearing'
  smearing = 'mv'     
  nosym = .TRUE.
  degauss = 0.02      
/

&ELECTRONS
  conv_thr = 1e-6        
  electron_maxstep = 200
  mixing_beta = 0.4   
  diagonalization = 'david'  
  startingwfc = "atomic+random"
  startingpot = "atomic"
/

&IONS
  ion_dynamics = 'bfgs' 
/

&CELL
  cell_dofree = 'all'   
/

ATOMIC_SPECIES
  Zn  65.38  Zn_pbe_v1.uspp.F.UPF  

CELL_PARAMETERS (angstrom) 
        9.7463216782         0.0000000000         0.0000000000
        0.0000000000        10.4574394226         0.0000000000
        0.0000000000       -13.3116235733        23.0564083602

ATOMIC_POSITIONS (angstrom)  
Zn  1.2182900000  1.3071800000  0.7547010000  0 0 0
Zn  1.2182900000  6.5359000000  0.7547010000  0 0 0
Zn  1.2182900000  0.0000000000  3.0188030000  1 1 1
Zn  1.2182900000  5.2287200000  3.0188030000  1 1 1
Zn  1.2182900000  -1.3071800000  5.2829050000  1 1 1
Zn  1.2182900000  3.9215400000  5.2829050000  1 1 1
Zn  1.2182900000  3.9215400000  0.7547010000  0 0 0
Zn  1.2182900000  9.1502600000  0.7547010000  0 0 0
Zn  1.2182900000  2.6143600000  3.0188030000  1 1 1
Zn  1.2182900000  7.8430800000  3.0188030000  1 1 1
Zn  1.2182900000  1.3071800000  5.2829050000  1 1 1
Zn  1.2182900000  6.5359000000  5.2829050000  1 1 1
Zn  6.0914510000  1.3071800000  0.7547010000  0 0 0
Zn  6.0914510000  6.5359000000  0.7547010000  0 0 0
Zn  6.0914510000  0.0000000000  3.0188030000  1 1 1
Zn  6.0914510000  5.2287200000  3.0188030000  1 1 1
Zn  6.0914510000  -1.3071800000  5.2829050000  1 1 1
Zn  6.0914510000  3.9215400000  5.2829050000  1 1 1
Zn  6.0914510000  3.9215400000  0.7547010000  0 0 0
Zn  6.0914510000  9.1502600000  0.7547010000  0 0 0
Zn  6.0914510000  2.6143600000  3.0188030000  1 1 1
Zn  6.0914510000  7.8430800000  3.0188030000  1 1 1
Zn  6.0914510000  1.3071800000  5.2829050000  1 1 1
Zn  6.0914510000  6.5359000000  5.2829050000  1 1 1
Zn  3.6548710000  0.0000000000  1.5094010000  0 0 0
Zn  3.6548710000  5.2287200000  1.5094010000  0 0 0
Zn  3.6548710000  -1.3071800000  3.7735030000  1 1 1
Zn  3.6548710000  3.9215400000  3.7735030000  1 1 1
Zn  3.6548710000  -2.6143600000  6.0376060000  1 1 1
Zn  3.6548710000  2.6143600000  6.0376060000  1 1 1
Zn  3.6548710000  2.6143600000  1.5094010000  0 0 0
Zn  3.6548710000  7.8430800000  1.5094010000  0 0 0
Zn  3.6548710000  1.3071800000  3.7735030000  1 1 1
Zn  3.6548710000  6.5359000000  3.7735030000  1 1 1
Zn  3.6548710000  0.0000000000  6.0376060000  1 1 1
Zn  3.6548710000  5.2287200000  6.0376060000  1 1 1
Zn  8.5280310000  0.0000000000  1.5094010000  0 0 0
Zn  8.5280310000  5.2287200000  1.5094010000  0 0 0
Zn  8.5280310000  -1.3071800000  3.7735030000  1 1 1
Zn  8.5280310000  3.9215400000  3.7735030000  1 1 1
Zn  8.5280310000  -2.6143600000  6.0376060000  1 1 1
Zn  8.5280310000  2.6143600000  6.0376060000  1 1 1
Zn  8.5280310000  2.6143600000  1.5094010000  0 0 0
Zn  8.5280310000  7.8430800000  1.5094010000  0 0 0
Zn  8.5280310000  1.3071800000  3.7735030000  1 1 1
Zn  8.5280310000  6.5359000000  3.7735030000  1 1 1
Zn  8.5280310000  0.0000000000  6.0376060000  1 1 1
Zn  8.5280310000  5.2287200000  6.0376060000  1 1 1

K_POINTS automatic 
  3 3 1  0 0 0  

