&CONTROL
  calculation = 'relax'    
  restart_mode = 'from_scratch' 
  prefix = 'Zn002_3x3x2_relax'  
  outdir = './tmp'       
  pseudo_dir = '/home/ys/qepseudo/SSSP_1.3.0_PBE_efficiency' 
  tprnfor = .true.        
  tstress = .true.       
  verbosity = 'high'      
  etot_conv_thr = 1.0e-5  
  forc_conv_thr =  5.0e-4 

  max_seconds   =  1.72800e+05 
  nstep         = 100          
/

&SYSTEM
  ibrav = 0           
  nat = 36            
  ntyp = 1            
  ecutwfc = 50.0     
  ecutrho = 400.0    
  occupations = 'smearing'
  smearing = 'mv'     
  degauss = 0.02      
/

&ELECTRONS
  conv_thr = 7.35e-7        
  electron_maxstep = 200
  mixing_beta = 0.7   
  diagonalization = 'david'  
  startingwfc = "atomic+random"
  startingpot = "atomic"
/

&IONS
  ion_dynamics = 'bfgs' 
/

&CELL
  cell_dofree = 'all'   
/

ATOMIC_SPECIES
  Zn  65.38  Zn_pbe_v1.uspp.F.UPF  

CELL_PARAMETERS (angstrom) 
  7.8430795670         0.0000000000         0.0000000000
 -3.9215397835         6.7923061489         0.0000000000
  0.0000000000         0.0000000000        18.8731613159

ATOMIC_POSITIONS (angstrom)  
    Zn    -0.000000013         1.509401374         1.218290241
    Zn    -0.000000013         1.509401374         3.654870722
    Zn    -1.307179941         3.773503424         1.218290241
    Zn    -1.307179941         3.773503424         3.654870722
    Zn    -2.614359869         6.037605473         1.218290241
    Zn    -2.614359869         6.037605473         3.654870722
    Zn     2.614359843         1.509401374         1.218290241
    Zn     2.614359843         1.509401374         3.654870722
    Zn     1.307179915         3.773503424         1.218290241
    Zn     1.307179915         3.773503424         3.654870722
    Zn    -0.000000013         6.037605473         1.218290241
    Zn    -0.000000013         6.037605473         3.654870722
    Zn     5.228719698         1.509401374         1.218290241
    Zn     5.228719698         1.509401374         3.654870722
    Zn     3.921539770         3.773503424         1.218290241
    Zn     3.921539770         3.773503424         3.654870722
    Zn     2.614359843         6.037605473         1.218290241
    Zn     2.614359843         6.037605473         3.654870722
    Zn     1.307179941         0.754700676         1.218290241
    Zn     1.307179941         0.754700676         3.654870722
    Zn     0.000000013         3.018802726         1.218290241
    Zn     0.000000013         3.018802726         3.654870722
    Zn    -1.307179915         5.282904775         1.218290241
    Zn    -1.307179915         5.282904775         3.654870722
    Zn     3.921539797         0.754700676         1.218290241
    Zn     3.921539797         0.754700676         3.654870722
    Zn     2.614359869         3.018802726         1.218290241
    Zn     2.614359869         3.018802726         3.654870722
    Zn     1.307179941         5.282904775         1.218290241
    Zn     1.307179941         5.282904775         3.654870722
    Zn     6.535899652         0.754700676         1.218290241
    Zn     6.535899652         0.754700676         3.654870722
    Zn     5.228719724         3.018802726         1.218290241
    Zn     5.228719724         3.018802726         3.654870722
    Zn     3.921539797         5.282904775         1.218290241
    Zn     3.921539797         5.282904775         3.654870722

K_POINTS automatic 
  4 4 4  0 0 0  

