&CONTROL
  calculation = 'relax'    
  restart_mode = 'from_scratch' 
  prefix = 'Zn101_2x4x2_relax_fix'   
  outdir = './tmp'        
  pseudo_dir = '/home/ys/qepseudo/SSSP_1.3.0_PBE_efficiency'
  tprnfor = .true.        
  tstress = .true.        
  verbosity = 'high'      
  etot_conv_thr = 1.0e-5  
  forc_conv_thr =  5.0e-4 
  max_seconds   =  1.72800e+05 
  nstep         = 100           
/

&SYSTEM
  ibrav = 0           
  nat = 32            
  ntyp = 1            
  ecutwfc = 50.0      
  ecutrho = 400.0    
  occupations = 'smearing' 
  smearing = 'mv'     
  degauss = 0.02      
/

&ELECTRONS
  conv_thr = 7.35e-7         
  electron_maxstep = 200
  mixing_beta = 0.7   
  diagonalization = 'david'  
  startingwfc = "atomic+random"
  startingpot = "atomic"
/

&IONS
  ion_dynamics = 'bfgs' 
/

&CELL
  cell_dofree = 'all'   
/

ATOMIC_SPECIES
  Zn  65.38  Zn_pbe_v1.uspp.F.UPF   

CELL_PARAMETERS (angstrom) 
  11.0603027344         0.0000000000         0.0000000000
  -2.4718588623        10.1610999917         0.0000000000
 -37.9225770839        -9.2253061502        18.1066219441

ATOMIC_POSITIONS (angstrom)
  Zn  -1.073555502  1.084142274  1.197763852  0  0  0
  Zn  -5.367777252  0.039500444  3.251073171  0  0  1
  Zn  -1.691520218  3.624417272  1.197763852  0  0  0
  Zn  -5.985741967  2.579775442  3.251073171  0  0  1
  Zn  -2.309484933  6.164692270  1.197763852  0  0  0
  Zn  -6.603706683  5.120050440  3.251073171  0  0  1
  Zn  -2.927449649  8.704967268  1.197763852  0  0  0
  Zn  -7.221671398  7.660325438  3.251073171  0  0  1
  Zn  4.456595865  1.084142274  1.197763852  0  0  0
  Zn  0.162374115  0.039500444  3.251073171  0  0  1
  Zn  3.838631150  3.624417272  1.197763852  0  0  0
  Zn  -0.455590600  2.579775442  3.251073171  0  0  1
  Zn  3.220666434  6.164692270  1.197763852  0  0  0
  Zn  -1.073555316  5.120050440  3.251073171  0  0  1
  Zn  2.602701718  8.704967268  1.197763852  0  0  0
  Zn  -1.691520031  7.660325438  3.251073171  0  0  1
  Zn  1.691520405  0.411490895  0.855545468  0  0  0
  Zn  -2.602701344  -0.633150935  2.908854788  0  0  1
  Zn  1.073555689  2.951765893  0.855545468  0  0  0
  Zn  -3.220666059  1.907124063  2.908854788  0  0  1
  Zn  0.455590974  5.492040891  0.855545468  0  0  0
  Zn  -3.838630775  4.447399061  2.908854788  0  0  1
  Zn  -0.162373742  8.032315889  0.855545468  0  0  0
  Zn  -4.456595490  6.987674059  2.908854788  0  0  1
  Zn  7.221671772  0.411490895  0.855545468  0  0  0
  Zn  2.927450023  -0.633150935  2.908854788  0  0  1
  Zn  6.603707057  2.951765893  0.855545468  0  0  0
  Zn  2.309485308  1.907124063  2.908854788  0  0  1
  Zn  5.985742341  5.492040891  0.855545468  0  0  0
  Zn  1.691520592  4.447399061  2.908854788  0  0  1
  Zn  5.367777625  8.032315889  0.855545468  0  0  0
  Zn  1.073555877  6.987674059  2.908854788  0  0  1
  
K_POINTS automatic  
  4 4 4  0 0 0  

