&CONTROL
  calculation = 'relax'   
  restart_mode = 'from_scratch' 
  prefix = 'Zn100_2x4x2_relax'   
  outdir = './tmp'       
  pseudo_dir = '/home/ys/qepseudo/SSSP_1.3.0_PBE_efficiency' 
  tprnfor = .true.       
  tstress = .true.       
  verbosity = 'high'      
  etot_conv_thr = 1.0e-5 
  forc_conv_thr =  5.0e-4 

  max_seconds   =  1.72800e+05 
  nstep         = 100          
/

&SYSTEM
  ibrav = 0           
  nat = 32            
  ntyp = 1            
  ecutwfc = 50.0      
  ecutrho = 400.0     
  occupations = 'smearing'
  smearing = 'mv'     
  degauss = 0.02      
/

&ELECTRONS
  conv_thr = 7.35e-7         
  electron_maxstep = 200
  mixing_beta = 0.7  
  diagonalization = 'david'  
  startingwfc = "atomic+random"
  startingpot = "atomic"
/

&IONS
  ion_dynamics = 'bfgs' 
/

&CELL
  cell_dofree = 'all'  
/

ATOMIC_SPECIES
  Zn 65.38 Zn_pbe_v1.uspp.F.UPF   

CELL_PARAMETERS (angstrom) 
 9.7463216782         0.0000000000         0.0000000000
 0.0000000000        10.4574394226         0.0000000000
 0.0000000000       -10.6972637177        18.5282042609

ATOMIC_POSITIONS (angstrom)  
  Zn       1.218290210         1.307179937         0.754700683
  Zn       1.218290210        -0.000000003         3.018802752
  Zn       1.218290210         3.921539793         0.754700683
  Zn       1.218290210         2.614359853         3.018802752
  Zn       1.218290210         6.535899648         0.754700683
  Zn       1.218290210         5.228719708         3.018802752
  Zn       1.218290210         9.150259504         0.754700683
  Zn       1.218290210         7.843079564         3.018802752
  Zn       6.091451049         1.307179937         0.754700683
  Zn       6.091451049        -0.000000003         3.018802752
  Zn       6.091451049         3.921539793         0.754700683
  Zn       6.091451049         2.614359853         3.018802752
  Zn       6.091451049         6.535899648         0.754700683
  Zn       6.091451049         5.228719708         3.018802752
  Zn       6.091451049         9.150259504         0.754700683
  Zn       6.091451049         7.843079564         3.018802752
  Zn       3.654870629        -0.000000021         1.509401387
  Zn       3.654870629        -1.307179961         3.773503457
  Zn       3.654870629         2.614359835         1.509401387
  Zn       3.654870629         1.307179895         3.773503457
  Zn       3.654870629         5.228719690         1.509401387
  Zn       3.654870629         3.921539750         3.773503457
  Zn       3.654870629         7.843079546         1.509401387
  Zn       3.654870629         6.535899606         3.773503457
  Zn       8.528031468        -0.000000021         1.509401387
  Zn       8.528031468        -1.307179961         3.773503457
  Zn       8.528031468         2.614359835         1.509401387
  Zn       8.528031468         1.307179895         3.773503457
  Zn       8.528031468         5.228719690         1.509401387
  Zn       8.528031468         3.921539750         3.773503457
  Zn       8.528031468         7.843079546         1.509401387
  Zn       8.528031468         6.535899606         3.773503457

K_POINTS (automatic)
  4 4 4  0 0 0  