&CONTROL
  calculation = 'relax'    
  restart_mode ='from_scratch' 
  prefix = 'Zn002_3layer_relax'  
  outdir = './tmp'       
  pseudo_dir = '/home/yongsang/Research/PSID_server_room/qe/[00]QE/qepseudo/SSSP_1.3.0_PBE_efficiency' 
  tprnfor = .true.        
  tstress = .true.       
  verbosity = 'high'      
  etot_conv_thr = 1.0e-5  
  forc_conv_thr =  5.0e-4 
  max_seconds   =  1.72800e+06
  nstep         = 500          
  dipfield = .true.
	tefield=.true. 
/

&SYSTEM
  ibrav = 0           
  nat = 48            
  ntyp = 1            
  ecutwfc = 40.0
  ecutrho = 280.0    
  occupations = 'smearing'
  smearing = 'mv'     
  nosym = .TRUE.
  degauss = 0.02      
  vdw_corr='grimme-d3'
/

&ELECTRONS
  conv_thr = 1e-6        
  electron_maxstep = 200
  mixing_beta = 0.4   
  diagonalization = 'david'  
  startingwfc = "atomic+random"
  startingpot = "atomic"
/

&IONS
  ion_dynamics = 'bfgs' 
/

&CELL
  cell_dofree = 'all'   
/

ATOMIC_SPECIES
  Zn  65.38  Zn_pbe_v1.uspp.F.UPF  

CELL_PARAMETERS (angstrom) 
       10.4574394226         0.0000000000         0.0000000000
       -5.2287197113         9.0564081985         0.0000000000
        0.0000000000         0.0000000000        23.7463226318

ATOMIC_POSITIONS (angstrom)
Zn               0.0000000000        1.5094010000        1.2182900000    0   0   0
Zn               5.2287200000        1.5094010000        1.2182900000    0   0   0
Zn              -0.0218086003        1.4967151654        6.2711662848
Zn               5.3309607444        1.5687256640        6.2706305516
Zn              -1.3071800000        3.7735030000        1.2182900000    0   0   0
Zn               3.9215400000        3.7735030000        1.2182900000    0   0   0
Zn              -1.3290116334        3.7608306399        6.2700079231
Zn               4.0239149746        3.8327337261        6.2693762193
Zn              -2.6143600000        6.0376050000        1.2182900000    0   0   0
Zn               2.6143600000        6.0376050000        1.2182900000    0   0   0
Zn              -2.6364782767        6.0249511977        6.2688453491
Zn               2.7169256405        6.0965397708        6.2702263020
Zn              -3.9215400000        8.3017080000        1.2182900000    0   0   0
Zn               1.3071800000        8.3017080000        1.2182900000    0   0   0
Zn              -3.9435549593        8.2890464356        6.2698899704
Zn               1.4096613003        8.3607302229        6.2715004022
Zn               2.6143600000        1.5094010000        1.2182900000    0   0   0
Zn               7.8430800000        1.5094010000        1.2182900000    0   0   0
Zn               2.5929268439        1.4971620680        6.2716814682
Zn               7.8215330047        1.4969440605        6.2701522954
Zn               1.3071800000        3.7735030000        1.2182900000    0   0   0
Zn               6.5359000000        3.7735030000        1.2182900000    0   0   0
Zn               1.2859121667        3.7611365985        6.2715227184
Zn               6.5140406066        3.7611704362        6.2679547678
Zn               0.0000000000        6.0376050000        1.2182900000    0   0   0
Zn               5.2287200000        6.0376050000        1.2182900000    0   0   0
Zn              -0.0212849972        6.0251184759        6.2714659403
Zn               5.2070014905        6.0250336634        6.2677487904
Zn              -1.3071800000        8.3017080000        1.2182900000    0   0   0
Zn               3.9215400000        8.3017080000        1.2182900000    0   0   0
Zn              -1.3287346842        8.2894313736        6.2715635608
Zn               3.9000599697        8.2890976968        6.2699013929
Zn               1.2851791637        0.7421649685        3.7452173454
Zn               6.5216886140        0.7469142720        3.7448596546
Zn              -0.0217423244        3.0058687327        3.7452134266
Zn               5.2142470244        3.0109544707        3.7442759087
Zn              -1.3293492033        5.2698828825        3.7445074182
Zn               3.9075275434        5.2743926731        3.7439815483
Zn              -2.6367742282        7.5345277557        3.7445035664
Zn               2.6006093437        7.5386177542        3.7446199867
Zn               3.9040791381        0.7452997334        3.7452570461
Zn               9.1289450029        0.7422575357        3.7448104834
Zn               2.5974181024        3.0089654431        3.7451292841
Zn               7.8212970458        3.0063547319        3.7442451624
Zn               1.2904913817        5.2725388031        3.7450078243
Zn               6.5137835220        5.2702442590        3.7435372348
Zn              -0.0171726118        7.5372002814        3.7452227399
Zn               5.2070910476        7.5343974527        3.7439953991

K_POINTS automatic 
  3 3 1  0 0 0  

