&CONTROL
  calculation = 'relax'    
  restart_mode = 'from_scratch' 
  prefix = 'Zn100_2x4x4_primitive_atoms32_14Avacumn_ABN_bridge_upright_parallel'  
  outdir = './tmp'       
  pseudo_dir = '/home/ys/qepseudo/SSSP_1.3.0_PBE_efficiency' 
  tprnfor = .true.        
  tstress = .true.       
  verbosity = 'high'      
  etot_conv_thr = 1.0e-5  
  forc_conv_thr =  5.0e-4 

  max_seconds   =  1.72800e+05 
  nstep         = 100          
/

&SYSTEM
  ibrav = 0           
  nat = 79            
  ntyp = 4            
  ecutwfc = 30.0     
  ecutrho = 120.0    
  occupations = 'smearing'
  smearing = 'mv'     
  degauss = 0.02      
  nosym = .TRUE.
/

&ELECTRONS
  conv_thr = 7.35e-7        
  electron_maxstep = 200
  mixing_beta = 0.7   
  diagonalization = 'david'  
  startingwfc = "atomic+random"
  startingpot = "atomic"
/

&IONS
  ion_dynamics = 'bfgs' 
/

&CELL
  cell_dofree = 'all'   
/

ATOMIC_SPECIES
  Zn  65.38  Zn_pbe_v1.uspp.F.UPF  
  C  12.0107   C.pbe-n-kjpaw_psl.1.0.0.UPF  
  N  14.0067   N.pbe-n-radius_5.UPF  
  H  1.008   H.pbe-rrkjus_psl.1.0.0.UPF  

CELL_PARAMETERS (angstrom) 
       10.4574394226         0.0000000000         0.0000000000
       -5.2287197113         9.0564081985         0.0000000000
        0.0000000000         0.0000000000        23.7463226318

ATOMIC_POSITIONS (angstrom)  
Zn  1.2182902100  1.3071799380  0.7547006810  0 0 0
Zn  1.2182902100  6.5358996490  0.7547006810  0 0 0
Zn  1.2182902100  0.0000000010  3.0188027470  0 0 0
Zn  1.2182902100  5.2287197120  3.0188027470  0 0 0
Zn  1.2185726075  -1.3073880994  5.6729282852  0 0 0
Zn  1.2186851431  3.9215451479  5.6720151579  0 0 0
Zn  1.2186874652  -2.6146512868  8.3124525080  1 1 1
Zn  1.2187441482  2.6147502354  8.3119490829  1 1 1
Zn  1.2182902100  3.9215397940  0.7547006810  0 0 0
Zn  1.2182902100  9.1502595050  0.7547006810  0 0 0
Zn  1.2182902100  2.6143598570  3.0188027470  0 0 0
Zn  1.2182902100  7.8430795680  3.0188027470  0 0 0
Zn  1.2186883199  1.3072854268  5.6723424169  0 0 0
Zn  1.2185625130  6.5357747424  5.6727099542  0 0 0
Zn  1.2187214220  -0.0003586288  8.3124656907  1 1 1
Zn  1.2187057638  5.2291606609  8.3118595007  1 1 1
Zn  6.0914510490  1.3071799380  0.7547006810  0 0 0
Zn  6.0914510490  6.5358996490  0.7547006810  0 0 0
Zn  6.0914510490  0.0000000010  3.0188027470  0 0 0
Zn  6.0914510490  5.2287197120  3.0188027470  0 0 0
Zn  6.0911338514  -1.3072242637  5.6748546444  0 0 0
Zn  6.0910857638  3.9213990650  5.6741431289  0 0 0
Zn  6.0911071145  -2.6147187100  8.3122617478  1 1 1
Zn  6.0909630492  2.6148257972  8.3118541494  1 1 1
Zn  6.0914510490  3.9215397940  0.7547006810  0 0 0
Zn  6.0914510490  9.1502595050  0.7547006810  0 0 0
Zn  6.0914510490  2.6143598570  3.0188027470  0 0 0
Zn  6.0914510490  7.8430795680  3.0188027470  0 0 0
Zn  6.0911030401  1.3076064174  5.6744400348  0 0 0
Zn  6.0911314819  6.5354481156  5.6746346244  0 0 0
Zn  6.0910519940  -0.0001550310  8.3123616547  1 1 1
Zn  6.0910350808  5.2289552434  8.3117181402  1 1 1
Zn  3.6548706290  -0.0000000190  1.5094013850  0 0 0
Zn  3.6548706290  5.2287196920  1.5094013850  0 0 0
Zn  3.6548706290  -1.3071799560  3.7735034500  0 0 0
Zn  3.6548706290  3.9215397550  3.7735034500  0 0 0
Zn  3.6546710580  -2.6147701593  6.0778389286  0 0 0
Zn  3.6547432516  2.6146750712  6.0771464013  0 0 0
Zn  3.6559778408  -3.9216886876  8.4670559092  1 1 1
Zn  3.6560296889  1.3071976063  8.4673307023  1 1 1
Zn  3.6548706290  2.6143598370  1.5094013850  0 0 0
Zn  3.6548706290  7.8430795480  1.5094013850  0 0 0
Zn  3.6548706290  1.3071799000  3.7735034500  0 0 0
Zn  3.6548706290  6.5358996110  3.7735034500  0 0 0
Zn  3.6547437702  0.0001669099  6.0773502731  0 0 0
Zn  3.6547864959  5.2284186199  6.0775758154  0 0 0
Zn  3.6559474203  -1.3076933695  8.4673694336  1 1 1
Zn  3.6560502897  3.9218980393  8.4670053876  1 1 1
Zn  8.5280314680  -0.0000000190  1.5094013850  0 0 0
Zn  8.5280314680  5.2287196920  1.5094013850  0 0 0
Zn  8.5280314680  -1.3071799560  3.7735034500  0 0 0
Zn  8.5280314680  3.9215397550  3.7735034500  0 0 0
Zn  8.5281647867  -2.6147587956  6.0779299812  0 0 0
Zn  8.5281732184  2.6146472247  6.0772010317  0 0 0
Zn  8.5269885230  -3.9215735360  8.4681201244  1 1 1
Zn  8.5268924990  1.3070557120  8.4683976833  1 1 1
Zn  8.5280314680  2.6143598370  1.5094013850  0 0 0
Zn  8.5280314680  7.8430795480  1.5094013850  0 0 0
Zn  8.5280314680  1.3071799000  3.7735034500  0 0 0
Zn  8.5280314680  6.5358996110  3.7735034500  0 0 0
Zn  8.5282171944  -0.0000137934  6.0774321744  0 0 0
Zn  8.5281738077  5.2286143460  6.0776528160  0 0 0
Zn  8.5270310305  -1.3077639996  8.4684178960  1 1 1
Zn  8.5268620331  3.9220020700  8.4680752259  1 1 1              
C        4.1457952045      1.6097404331     11.0747067675                 
C        3.0259523252      1.0338336238     13.1691781310                 
C        4.9077551085      2.0403803868     11.5774009140                 
C        3.8439704072      1.5018649656     13.6811077948                 
C        4.9173026031      2.0752253526     12.9434373643                 
C        5.6609847260      2.4471352358     11.0428560457                 
C        3.8727346757      1.5429990643     15.0784682360                 
N        3.0479187778      1.0988711212     15.6391771308                 
N        5.9837234012      2.6801131304     13.6474725891                 
H        4.9373007642      2.1468525386     15.7762889400                 
H        5.9918048415      2.7142128174     15.0338372279                 
H        6.8113462598      3.1259121616     13.0894373503                 
H        4.9474821455      2.1830645128     17.2063674037                 
H        4.9558025567      2.2124734063     18.3685214287                 
H        6.8242619762      3.1858880835     15.5595573075                 
   
K_POINTS automatic 
  3 3 1  0 0 0  

