&CONTROL
  calculation = 'relax'    
  restart_mode = 'from_scratch' 
  prefix = 'Zn100_2x4x4_primitive_atoms32_14Avacumn_ABN_bridge_tilted_cross'  
  outdir = './tmp'       
  pseudo_dir = '/home/ys/qepseudo/SSSP_1.3.0_PBE_efficiency' 
  tprnfor = .true.        
  tstress = .true.       
  verbosity = 'high'      
  etot_conv_thr = 1.0e-5  
  forc_conv_thr =  5.0e-4 

  max_seconds   =  1.72800e+05 
  nstep         = 100          
/

&SYSTEM
  ibrav = 0           
  nat = 79            
  ntyp = 4            
  ecutwfc = 30.0     
  ecutrho = 120.0    
  occupations = 'smearing'
  smearing = 'mv'     
  degauss = 0.02      
  nosym = .TRUE.
/

&ELECTRONS
  conv_thr = 7.35e-7        
  electron_maxstep = 200
  mixing_beta = 0.7   
  diagonalization = 'david'  
  startingwfc = "atomic+random"
  startingpot = "atomic"
/

&IONS
  ion_dynamics = 'bfgs' 
/

&CELL
  cell_dofree = 'all'   
/

ATOMIC_SPECIES
  Zn  65.38  Zn_pbe_v1.uspp.F.UPF  
  C  12.0107   C.pbe-n-kjpaw_psl.1.0.0.UPF  
  N  14.0067   N.pbe-n-radius_5.UPF  
  H  1.008   H.pbe-rrkjus_psl.1.0.0.UPF  

CELL_PARAMETERS (angstrom) 
       10.4574394226         0.0000000000         0.0000000000
       -5.2287197113         9.0564081985         0.0000000000
        0.0000000000         0.0000000000        23.7463226318

ATOMIC_POSITIONS (angstrom)  
Zn  1.2182902100  1.3071799380  0.7547006810  
Zn  1.2182902100  6.5358996490  0.7547006810  
Zn  1.2182902100  0.0000000010  3.0188027470  
Zn  1.2182902100  5.2287197120  3.0188027470  
Zn  1.2185726075  -1.3073880994  5.6729282852 
Zn  1.2186851431  3.9215451479  5.6720151579  
Zn  1.2186874652  -2.6146512868  8.3124525080 
Zn  1.2187441482  2.6147502354  8.3119490829  
Zn  1.2182902100  3.9215397940  0.7547006810  
Zn  1.2182902100  9.1502595050  0.7547006810  
Zn  1.2182902100  2.6143598570  3.0188027470  
Zn  1.2182902100  7.8430795680  3.0188027470  
Zn  1.2186883199  1.3072854268  5.6723424169  
Zn  1.2185625130  6.5357747424  5.6727099542  
Zn  1.2187214220  -0.0003586288  8.3124656907 
Zn  1.2187057638  5.2291606609  8.3118595007  
Zn  6.0914510490  1.3071799380  0.7547006810  
Zn  6.0914510490  6.5358996490  0.7547006810  
Zn  6.0914510490  0.0000000010  3.0188027470  
Zn  6.0914510490  5.2287197120  3.0188027470  
Zn  6.0911338514  -1.3072242637  5.6748546444 
Zn  6.0910857638  3.9213990650  5.6741431289  
Zn  6.0911071145  -2.6147187100  8.3122617478 
Zn  6.0909630492  2.6148257972  8.3118541494  
Zn  6.0914510490  3.9215397940  0.7547006810  
Zn  6.0914510490  9.1502595050  0.7547006810  
Zn  6.0914510490  2.6143598570  3.0188027470  
Zn  6.0914510490  7.8430795680  3.0188027470  
Zn  6.0911030401  1.3076064174  5.6744400348  
Zn  6.0911314819  6.5354481156  5.6746346244  
Zn  6.0910519940  -0.0001550310  8.3123616547 
Zn  6.0910350808  5.2289552434  8.3117181402  
Zn  3.6548706290  -0.0000000190  1.5094013850 
Zn  3.6548706290  5.2287196920  1.5094013850  
Zn  3.6548706290  -1.3071799560  3.7735034500 
Zn  3.6548706290  3.9215397550  3.7735034500  
Zn  3.6546710580  -2.6147701593  6.0778389286 
Zn  3.6547432516  2.6146750712  6.0771464013  
Zn  3.6559778408  -3.9216886876  8.4670559092 
Zn  3.6560296889  1.3071976063  8.4673307023  
Zn  3.6548706290  2.6143598370  1.5094013850  
Zn  3.6548706290  7.8430795480  1.5094013850  
Zn  3.6548706290  1.3071799000  3.7735034500  
Zn  3.6548706290  6.5358996110  3.7735034500  
Zn  3.6547437702  0.0001669099  6.0773502731  
Zn  3.6547864959  5.2284186199  6.0775758154  
Zn  3.6559474203  -1.3076933695  8.4673694336 
Zn  3.6508838140  3.9490711684  8.6448674931  
Zn  8.5280314680  -0.0000000190  1.5094013850 
Zn  8.5280314680  5.2287196920  1.5094013850  
Zn  8.5280314680  -1.3071799560  3.7735034500 
Zn  8.5280314680  3.9215397550  3.7735034500  
Zn  8.5281647867  -2.6147587956  6.0779299812 
Zn  8.5281732184  2.6146472247  6.0772010317  
Zn  8.5269885230  -3.9215735360  8.4681201244 
Zn  8.5268924990  1.3070557120  8.4683976833  
Zn  8.5280314680  2.6143598370  1.5094013850  
Zn  8.5280314680  7.8430795480  1.5094013850  
Zn  8.5280314680  1.3071799000  3.7735034500  
Zn  8.5280314680  6.5358996110  3.7735034500  
Zn  8.5282171944  -0.0000137934  6.0774321744 
Zn  8.5281738077  5.2286143460  6.0776528160  
Zn  8.5270310305  -1.3077639996  8.4684178960 
Zn  8.5268620331  3.9220020700  8.4680752259  
C        5.0765503492      3.2807427258     13.4456525817                                  
C        5.7688337627      3.5933028380     14.6197227464                                  
C        5.3433688401      2.0491127751     12.7847182071                                  
C        4.6733011643      1.7254112811     11.6385500246                                  
C        6.7324745280      2.7201697938     15.1618140141                                  
C        6.3110616641      1.1757266504     13.3320331488                                  
C        7.4337655134      3.0588593315     16.3618034144                                  
N        6.9898543909      1.5058258893     14.4954487180                                  
N        4.3439276904      3.9576403750     13.0516654470                                  
H        3.9834089581      2.3495001441     11.2471164225                                  
H        8.0036682880      3.3341115022     17.3369659957                                  
H        5.5577653847      4.5382554096     15.1241398530                                  
H        4.8564613763      0.8569170016     11.1583104663                                  
H        6.5250722609      0.2286289908     12.8296634665                                  
H        7.7337472600      0.8182058415     14.9025987751                    
  
K_POINTS automatic 
  3 3 1  0 0 0  

