&CONTROL
  calculation = 'relax'    
  restart_mode = 'from_scratch' 
  prefix = 'Zn101_2x4x4_relax_ecutrho250_ecutwfc25'  
  outdir = './tmp'       
  pseudo_dir = '/home/ys/qepseudo/SSSP_1.3.0_PBE_efficiency' 
  tprnfor = .true.        
  tstress = .true.       
  verbosity = 'high'      
  etot_conv_thr = 1.0e-5  
  forc_conv_thr =  5.0e-4 
  max_seconds   =  1.72800e+05 
  nstep         = 100          
/

&SYSTEM
  ibrav = 0           
  nat = 64            
  ntyp = 1            
  ecutwfc = 30.0     
  ecutrho = 120.0    
  occupations = 'smearing'
  smearing = 'mv'     
  degauss = 0.02      
  nosym = .TRUE.
/

&ELECTRONS
  conv_thr = 7.35e-7        
  electron_maxstep = 200
  mixing_beta = 0.7   
  diagonalization = 'david'  
  startingwfc = "atomic+random"
  startingpot = "atomic"
/

&IONS
  ion_dynamics = 'bfgs' 
/

&CELL
  cell_dofree = 'all'   
/

ATOMIC_SPECIES
  Zn  65.38  Zn_pbe_v1.uspp.F.UPF  

CELL_PARAMETERS (angstrom) 
       11.0603027344         0.0000000000         0.0000000000
       -2.4718588623        10.1610999917         0.0000000000
      -46.4560228483       -11.3012106837        22.2132348689

ATOMIC_POSITIONS (angstrom)  
Zn  -1.073555604  1.084142249  1.197763544  0 0 0
Zn  -2.309485035  6.164692245  1.197763544  0 0 0
Zn  -5.367777526  0.039500377  3.251072335  0 0 0
Zn  -6.603706957  5.120050372  3.251072335  0 0 0
Zn  -9.661999447  -1.005141496  5.304381127  1 1 1
Zn  -10.897928878  4.075408500  5.304381127  1 1 1
Zn  -13.956221369  -2.049783368  7.357689918  1 1 1
Zn  -15.192150801  3.030766628  7.357689918  1 1 1
Zn  -1.691520319  3.624417247  1.197763544  0 0 0
Zn  -2.927449751  8.704967243  1.197763544  0 0 0
Zn  -5.985742241  2.579775375  3.251072335  0 0 0
Zn  -7.221671672  7.660325370  3.251072335  0 0 0
Zn  -10.279964163  1.535133502  5.304381127  1 1 1
Zn  -11.515893594  6.615683498  5.304381127  1 1 1
Zn  -14.574186085  0.490491630  7.357689918  1 1 1
Zn  -15.810115517  5.571041626  7.357689918  1 1 1
Zn  4.456595763  1.084142249  1.197763544  0 0 0
Zn  3.220666332  6.164692245  1.197763544  0 0 0
Zn  0.162373841  0.039500377  3.251072335  0 0 0
Zn  -1.073555590  5.120050372  3.251072335  0 0 0
Zn  -4.131848080  -1.005141496  5.304381127  1 1 1
Zn  -5.367777511  4.075408500  5.304381127  1 1 1
Zn  -8.426070003  -2.049783368  7.357689918  1 1 1
Zn  -9.661999434  3.030766628  7.357689918  1 1 1
Zn  3.838631048  3.624417247  1.197763544  0 0 0
Zn  2.602701617  8.704967243  1.197763544  0 0 0
Zn  -0.455590874  2.579775375  3.251072335  0 0 0
Zn  -1.691520305  7.660325370  3.251072335  0 0 0
Zn  -4.749812796  1.535133502  5.304381127  1 1 1
Zn  -5.985742227  6.615683498  5.304381127  1 1 1
Zn  -9.044034718  0.490491630  7.357689918  1 1 1
Zn  -10.279964150  5.571041626  7.357689918  1 1 1
Zn  1.691520333  0.411490877  0.855545248  0 0 0
Zn  0.455590902  5.492040873  0.855545248  0 0 0
Zn  -2.602701589  -0.633150995  2.908854039  0 0 0
Zn  -3.838631020  4.447399001  2.908854039  0 0 0
Zn  -6.896923510  -1.677792867  4.962162831  1 1 1
Zn  -8.132852942  3.402757129  4.962162831  1 1 1
Zn  -11.191145433  -2.722434739  7.015471623  1 1 1
Zn  -12.427074864  2.358115256  7.015471623  1 1 1
Zn  1.073555617  2.951765875  0.855545248  0 0 0
Zn  -0.162373814  8.032315871  0.855545248  0 0 0
Zn  -3.220666304  1.907124003  2.908854039  0 0 0
Zn  -4.456595735  6.987673999  2.908854039  0 0 0
Zn  -7.514888226  0.862482131  4.962162831  1 1 1
Zn  -8.750817658  5.943032127  4.962162831  1 1 1
Zn  -11.809110149  -0.182159741  7.015471623  1 1 1
Zn  -13.045039580  4.898390254  7.015471623  1 1 1
Zn  7.221671700  0.411490877  0.855545248  0 0 0
Zn  5.985742269  5.492040873  0.855545248  0 0 0
Zn  2.927449778  -0.633150995  2.908854039  0 0 0
Zn  1.691520347  4.447399001  2.908854039  0 0 0
Zn  -1.366772143  -1.677792867  4.962162831  1 1 1
Zn  -2.602701575  3.402757129  4.962162831  1 1 1
Zn  -5.660994066  -2.722434739  7.015471623  1 1 1
Zn  -6.896923497  2.358115256  7.015471623  1 1 1
Zn  6.603706985  2.951765875  0.855545248  0 0 0
Zn  5.367777554  8.032315871  0.855545248  0 0 0
Zn  2.309485063  1.907124003  2.908854039  0 0 0
Zn  1.073555632  6.987673999  2.908854039  0 0 0
Zn  -1.984736859  0.862482131  4.962162831  1 1 1
Zn  -3.220666291  5.943032127  4.962162831  1 1 1
Zn  -6.278958782  -0.182159741  7.015471623  1 1 1
Zn  -7.514888213  4.898390254  7.015471623  1 1 1

K_POINTS automatic 
  3 3 1  0 0 0  

