&CONTROL
  calculation = 'relax'    
  restart_mode = 'restart' 
  prefix = 'Zn002_4x4x2_primitive_14Avacumn_bridgesite_tilted_parallel_ABN'  
  outdir = './tmp'       
  pseudo_dir = '/home/ys/qepseudo/SSSP_1.3.0_PBE_efficiency' 
  tprnfor = .true.        
  tstress = .true.       
  verbosity = 'high'      
  etot_conv_thr = 1.0e-5  
  forc_conv_thr =  5.0e-4 

  max_seconds   =  1.72800e+05 
  nstep         = 100          
/

&SYSTEM
  ibrav = 0           
  nat = 79            
  ntyp = 4            
  ecutwfc = 30.0     
  ecutrho = 120.0    
  occupations = 'smearing'
  smearing = 'mv'     
  degauss = 0.02      
  nosym = .TRUE.
/

&ELECTRONS
  conv_thr = 7.35e-7        
  electron_maxstep = 200
  mixing_beta = 0.7   
  diagonalization = 'david'  
  startingwfc = "atomic+random"
  startingpot = "atomic"
/

&IONS
  ion_dynamics = 'bfgs' 
/

&CELL
  cell_dofree = 'all'   
/

ATOMIC_SPECIES
  Zn  65.38  Zn_pbe_v1.uspp.F.UPF  
  C  12.0107   C.pbe-n-kjpaw_psl.1.0.0.UPF  
  N  14.0067   N.pbe-n-radius_5.UPF  
  H  1.008   H.pbe-rrkjus_psl.1.0.0.UPF  

CELL_PARAMETERS (angstrom) 
       10.4574394226         0.0000000000         0.0000000000
       -5.2287197113         9.0564081985         0.0000000000
        0.0000000000         0.0000000000        23.7463226318

ATOMIC_POSITIONS (angstrom)  
Zn -0.0000000130 1.5094013740 1.2182902590  0 0 0
Zn 5.2287196980 1.5094013740 1.2182902590  0 0 0
Zn -0.0021085784 1.5076773687 5.9780550225  1 1 1
Zn 5.2274857396 1.5070042300 5.9779974219  1 1 1
Zn -1.3071799410 3.7735034240 1.2182902590  0 0 0
Zn 3.9215397700 3.7735034240 1.2182902590  0 0 0
Zn -1.3089342510 3.7724402195 5.9792438737  1 1 1
Zn 3.9206770141 3.7707654771 5.9728665302  1 1 1
Zn -2.6143598690 6.0376054730 1.2182902590  0 0 0
Zn 2.6143598420 6.0376054730 1.2182902590  0 0 0
Zn -2.6154355365 6.0365815894 5.9779870912  1 1 1
Zn 2.6104986407 6.0379059864 5.9758470385  1 1 1
Zn -3.9215397970 8.3017075230 1.2182902590  0 0 0
Zn 1.3071799140 8.3017075230 1.2182902590  0 0 0
Zn -3.9227891670 8.3004033459 5.9792490431  1 1 1
Zn 1.3048751808 8.3003754842 5.9793006392  1 1 1
Zn 2.6143598430 1.5094013740 1.2182902590  0 0 0
Zn 7.8430795540 1.5094013740 1.2182902590  0 0 0
Zn 2.6123209766 1.5060367475 5.9784097027  1 1 1
Zn 7.8415989180 1.5082007456 5.9771018113  1 1 1
Zn 1.3071799150 3.7735034240 1.2182902590  0 0 0
Zn 6.5358996260 3.7735034240 1.2182902590  0 0 0
Zn 1.3031432950 3.7722348876 5.9768010395  1 1 1
Zn 6.5356167867 3.7720232685 5.9772853699  1 1 1
Zn -0.0000000130 6.0376054730 1.2182902590  0 0 0
Zn 5.2287196980 6.0376054730 1.2182902590  0 0 0
Zn -0.0024878603 6.0365278717 5.9806525309  1 1 1
Zn 5.2291035473 6.0377949026 5.9761069767  1 1 1
Zn -1.3071799410 8.3017075230 1.2182902590  0 0 0
Zn 3.9215397700 8.3017075230 1.2182902590  0 0 0
Zn -1.3090084594 8.2997602329 5.9776090094  1 1 1
Zn 3.9200282033 8.3012805068 5.9788067617  1 1 1
Zn 1.3071799410 0.7547006760 3.6548707760  0 0 0
Zn 6.5358996520 0.7547006760 3.6548707760  0 0 0
Zn 1.3003068151 0.7508238926 8.5278998490  1 1 1
Zn 6.5299747617 0.7517278537 8.5281322550  1 1 1
Zn 0.0000000130 3.0188027250 3.6548707760  0 0 0
Zn 5.2287197240 3.0188027250 3.6548707760  0 0 0
Zn -0.0063908117 3.0160480875 8.5284987860  1 1 1
Zn 5.2229100095 3.0152241692 8.5268350045  1 1 1
Zn -1.3071799150 5.2829047750 3.6548707760  0 0 0
Zn 3.9215397960 5.2829047750 3.6548707760  0 0 0
Zn -1.3132219565 5.2799252050 8.5297666688  1 1 1
Zn 3.9153421610 5.2813308863 8.4733382963  1 1 1
Zn -2.6143598430 7.5470068250 3.6548707760  0 0 0
Zn 2.6143598680 7.5470068250 3.6548707760  0 0 0
Zn -2.6198643982 7.5441686436 8.5240336303  1 1 1
Zn 2.6075194436 7.5439926016 8.5312006782  1 1 1
Zn 3.9215397970 0.7547006760 3.6548707760  0 0 0
Zn 9.1502595080 0.7547006760 3.6548707760  0 0 0
Zn 3.9152822043 0.7509008664 8.5295767606  1 1 1
Zn 9.1444021325 0.7519676103 8.5231321142  1 1 1
Zn 2.6143598690 3.0188027250 3.6548707760  0 0 0
Zn 7.8430795800 3.0188027250 3.6548707760  0 0 0
Zn 2.6069046699 3.0141759161 8.4914601224  1 1 1
Zn 7.8370562830 3.0157944610 8.5278561802  1 1 1
Zn 1.3071799410 5.2829047750 3.6548707760  0 0 0
Zn 6.5358996520 5.2829047750 3.6548707760  0 0 0
Zn 1.2998657925 5.2799533098 8.5380930510  1 1 1
Zn 6.5308958183 5.2800425960 8.5266737053  1 1 1
Zn 0.0000000130 7.5470068250 3.6548707760  0 0 0
Zn 5.2287197240 7.5470068250 3.6548707760  0 0 0
Zn -0.0062659216 7.5437838695 8.5312561351  1 1 1
Zn 5.2234875899 7.5445736108 8.5289040888  1 1 1
C 1.0077933456 6.0491669333 17.0109992999  
C 1.6698777653 5.6627122347 15.8102456935  
C 1.3945450238 4.4176238957 15.2055943317  
C 2.6112188151 6.5219392791 15.2037945797  
C 3.2548176109 6.1490539361 14.0341331441  
C 2.0382203893 4.0447355615 14.0352599057  
C 2.9812130571 4.9032986756 13.4249666665  
N 0.4631929794 6.3713138781 18.0003124567  
N 3.6607123771 4.5131505672 12.2917253793  
H 4.1292266577 5.2314957462 11.7403354576  
H 3.2750663312 3.7509486176 11.7354677047  
H 0.6672516649 3.7454824973 15.6703829156  
H 2.8304246189 7.4885495948 15.6662329745  
H 3.9881219656 6.8217359086 13.5763376623  
H 1.8206243586 3.0728860968 13.5796089970  

K_POINTS automatic 
  2 2 1 0 0 0 

