&CONTROL
  calculation = 'relax'    
  restart_mode ='restart' 
  prefix = '04_Zn100_ABN_topsite_lean'  
  outdir = './tmp'       
  pseudo_dir = '/home/ys/qepseudo/SSSP_1.3.0_PBE_efficiency' 
  tprnfor = .true.        
  tstress = .true.       
  verbosity = 'high'      
  etot_conv_thr = 1.0e-5  
  forc_conv_thr =  5.0e-4 
  max_seconds   =  1.72800e+06
  nstep         = 100          
/

&SYSTEM
  ibrav = 0           
  nat = 63            
  ntyp = 4            
  ecutwfc = 40.0
  ecutrho = 280.0    
  occupations = 'smearing'
  smearing = 'mv'     
  nosym = .TRUE.
  degauss = 0.02      
  vdw_corr='grimme-d3'
/

&ELECTRONS
  conv_thr = 1e-6        
  electron_maxstep = 200
  mixing_beta = 0.4   
  diagonalization = 'david'  
  startingwfc = "atomic+random"
  startingpot = "atomic"
/

&IONS
  ion_dynamics = 'bfgs' 
/

&CELL
  cell_dofree = 'all'   
/

ATOMIC_SPECIES
  Zn  65.38  Zn_pbe_v1.uspp.F.UPF  
  N      14.00674  N.pbe-n-radius_5.UPF
  C      12.01070  C.pbe-n-kjpaw_psl.1.0.0.UPF
  H       1.00794  H.pbe-rrkjus_psl.1.0.0.UPF

CELL_PARAMETERS (angstrom) 
        9.7463216782         0.0000000000         0.0000000000
        0.0000000000        10.4574394226         0.0000000000
        0.0000000000       -13.3116235733        23.0564083602

ATOMIC_POSITIONS (angstrom)
Zn               1.2182900000        1.3071800000        0.7547010000    0   0   0
Zn               1.2182900000        6.5359000000        0.7547010000    0   0   0
Zn               1.2409161053        0.0038565895        3.5658437536
Zn               1.2322371501        5.2364643291        3.5571163039
Zn               1.2022496294       -1.2978562740        6.0886652405
Zn               1.1951308810        3.9317057151        6.0753167886
Zn               1.2182900000        3.9215400000        0.7547010000    0   0   0
Zn               1.2182900000        9.1502600000        0.7547010000    0   0   0
Zn               1.2349846268        2.6202978509        3.5659848962
Zn               1.2388149743        7.8518225989        3.5573895398
Zn               1.2008819187        1.3155923427        6.0830094105
Zn               1.1964132466        6.5469164187        6.0717326557
Zn               6.0914510000        1.3071800000        0.7547010000    0   0   0
Zn               6.0914510000        6.5359000000        0.7547010000    0   0   0
Zn               6.1199646897       -0.0015403937        3.5593463676
Zn               6.1256971142        5.2379764748        3.5521090275
Zn               6.0692101473       -1.2969995371        6.1504116601
Zn               6.0725676485        3.9321630959        6.0901398875
Zn               6.0914510000        3.9215400000        0.7547010000    0   0   0
Zn               6.0914510000        9.1502600000        0.7547010000    0   0   0
Zn               6.1272806615        2.6240273539        3.5537676483
Zn               6.1190444175        7.8529268416        3.5649395960
Zn               6.0675211567        1.3188780279        6.0422125671
Zn               6.0735605911        6.5468955911        6.0776394623
Zn               3.6548710000       -0.0000000000        1.5094010000    0   0   0
Zn               3.6548710000        5.2287200000        1.5094010000    0   0   0
Zn               3.6805625337       -1.3015013749        3.7712257395
Zn               3.6839851549        3.9253394935        3.7648816588
Zn               3.6400713275       -2.5991526133        6.1479078613
Zn               3.6314634227        2.6275277216        6.1440705951
Zn               3.6548710000        2.6143600000        1.5094010000    0   0   0
Zn               3.6548710000        7.8430800000        1.5094010000    0   0   0
Zn               3.6838732584        1.3120393712        3.7763038650
Zn               3.6809822247        6.5477596043        3.7697912410
Zn               3.6369613006        0.0063898964        6.1370699783
Zn               3.6337058204        5.2436507139        6.0947465614
Zn               8.5280310000       -0.0000000000        1.5094010000    0   0   0
Zn               8.5280310000        5.2287200000        1.5094010000    0   0   0
Zn               8.5552562191       -1.3024866762        3.7847933173
Zn               8.5594167522        3.9266660188        3.7820163116
Zn               8.5037898285       -2.6045583937        6.1642247548
Zn               8.5047841157        2.6217325243        6.1614057460
Zn               8.5280310000        2.6143600000        1.5094010000    0   0   0
Zn               8.5280310000        7.8430800000        1.5094010000    0   0   0
Zn               8.5630484941        1.3098317016        3.7853783208
Zn               8.5588591290        6.5425782164        3.7882396524
Zn               8.5024138816        0.0074247055        6.1670213578
Zn               8.5024960740        5.2356116725        6.1639451543
C                6.2220416910        0.3537037855        9.4894224111
C                5.5906899788        1.6278096488        9.4885411675
C                6.3426466598        2.8214217008        9.5173172325
C                4.1873115517        1.7121933664        9.3831453054
C                5.7137491407        4.0554708762        9.4420245468
C                3.5565365730        2.9446285863        9.3051409386
C                4.3061318609        4.1430032844        9.3368706642
N                6.7169954509       -0.7049565063        9.4458504167
N                3.6786678066        5.3576415432        9.2540274019
H                2.7250631308        5.3918483049        8.9050418033
H                4.2340580787        6.1780969083        9.0342026404
H                3.5962780907        0.7979469725        9.3272284079
H                7.4301430984        2.7710505714        9.5753152880
H                2.4717256145        2.9915458897        9.1974006716
H                6.3093431595        4.9700616440        9.4486127673

K_POINTS automatic 
  3 3 1  0 0 0  

