&CONTROL
  calculation = 'relax'    
  restart_mode ='from_scratch' 
  prefix = '05_Zn101_ABN_topsite_edge_on_tilted'  
  outdir = './tmp'       
  pseudo_dir = '/home/yongsang/Research/PSID_server_room/qe/[00]QE/qepseudo/SSSP_1.3.0_PBE_efficiency' 
  tprnfor = .true.        
  tstress = .true.       
  verbosity = 'high'      
  etot_conv_thr = 1.0e-5  
  forc_conv_thr =  5.0e-4 
  max_seconds   =  1.72800e+06
  nstep         = 100          
/

&SYSTEM
  ibrav = 0           
  nat = 63       
  ntyp = 4 
  ecutwfc = 40.0
  ecutrho = 280.0    
  occupations = 'smearing'
  smearing = 'mv'     
  nosym = .TRUE.
  degauss = 0.02      
  vdw_corr='grimme-d3'
/

&ELECTRONS
  conv_thr = 1e-6        
  electron_maxstep = 200
  mixing_beta = 0.4   
  diagonalization = 'david'  
  startingwfc = "atomic+random"
  startingpot = "atomic"
/

&IONS
  ion_dynamics = 'bfgs' 
/

&CELL
  cell_dofree = 'all'   
/

ATOMIC_SPECIES
  Zn  65.38  Zn_pbe_v1.uspp.F.UPF  
  N      14.00674  N.pbe-n-radius_5.UPF
  C      12.01070  C.pbe-n-kjpaw_psl.1.0.0.UPF
  H       1.00794  H.pbe-rrkjus_psl.1.0.0.UPF

CELL_PARAMETERS (angstrom) 
       11.0603027344         0.0000000000         0.0000000000
       -2.4718588623        10.1610999917         0.0000000000
      -46.4560228483       -11.3012106837        22.2132348689
     
ATOMIC_POSITIONS (angstrom)
Zn              -1.0735560000        1.0841420000        1.1977640000    0   0   0
Zn              -2.3094850000        6.1646920000        1.1977640000    0   0   0
Zn              -4.2000938175        0.3135680662        4.3816463383
Zn              -5.4335313252        5.3931549946        4.3754893347
Zn              -8.1376133007       -0.7040049900        5.8029109020
Zn              -9.3754163608        4.3621402734        5.7807511959
Zn              -1.6915200000        3.6244170000        1.1977640000    0   0   0
Zn              -2.9274500000        8.7049670000        1.1977640000    0   0   0
Zn              -4.8144872531        2.8584004936        4.3788496460
Zn              -6.0513641383        7.9298069221        4.3756943022
Zn              -8.7511452723        1.8296484596        5.8189997646
Zn              -9.9831637396        6.9216518633        5.8103530118
Zn               4.4565960000        1.0841420000        1.1977640000    0   0   0
Zn               3.2206660000        6.1646920000        1.1977640000    0   0   0
Zn               0.4311592501        0.1087551737        3.4607964656
Zn              -0.7989237372        5.1953642357        3.4579400625
Zn              -2.0611989834       -0.4901056290        5.7087293297
Zn              -3.2939069457        4.5889477252        5.7177622034
Zn               3.8386310000        3.6244170000        1.1977640000    0   0   0
Zn               2.6027020000        8.7049670000        1.1977640000    0   0   0
Zn              -0.1851847187        2.6501470513        3.4509160983
Zn              -1.4176886986        7.7303993311        3.4667652064
Zn              -2.6800892195        2.0479746505        5.7148006372
Zn              -3.9083879429        7.1267950400        5.7082874875
Zn               1.6915200000        0.4114910000        0.8555450000    0   0   0
Zn               0.4555910000        5.4920410000        0.8555450000    0   0   0
Zn              -2.2246849104       -0.5425169997        2.8849172502
Zn              -3.4545092666        4.5379128137        2.8879065994
Zn              -6.0246344254       -1.4911483761        4.4029171959
Zn              -7.2601067779        3.5891692176        4.4014967029
Zn               1.0735560000        2.9517660000        0.8555450000    0   0   0
Zn              -0.1623740000        8.0323160000        0.8555450000    0   0   0
Zn              -2.8371630987        1.9985704663        2.8966674785
Zn              -4.0769264745        7.0775999626        2.8791573950
Zn              -6.6429850093        1.0544583897        4.4009227011
Zn              -7.8793223038        6.1284810881        4.4084494143
Zn               7.2216720000        0.4114910000        0.8555450000    0   0   0
Zn               5.9857420000        5.4920410000        0.8555450000    0   0   0
Zn               3.0252941340       -0.6161363769        2.9197129045
Zn               1.7925682543        4.4644689487        2.9071171577
Zn               0.4222766203       -1.2133113156        5.8077914472
Zn              -0.8141300940        3.8601422928        5.7894059073
Zn               6.6037070000        2.9517660000        0.8555450000    0   0   0
Zn               5.3677780000        8.0323160000        0.8555450000    0   0   0
Zn               2.4020683990        1.9223687822        2.9189991199
Zn               1.1669431048        7.0025016470        2.9244850391
Zn              -0.1867294028        1.3287498345        5.8194236252
Zn              -1.4144291878        6.4066241535        5.8304924958
C              -13.1496847691        3.7451787336       13.5590732101
C              -12.3302738068        4.0123912365       12.4249497033
C              -12.8943087175        4.1152064489       11.1370418932
C              -10.9430241608        4.2127608568       12.5727189593
C              -12.1040894653        4.4157481982       10.0383045320
C              -10.1518020636        4.5178524373       11.4757418102
C              -10.7168011223        4.6336219269       10.1872795447
N              -13.8222799970        3.5378609751       14.4920270452
N               -9.9323024114        4.9200401677        9.0946623485
H               -9.0004468527        5.2858165112        9.2457135888
H              -10.3762441319        5.2222551273        8.2310428622
H              -10.4958992508        4.1333557038       13.5634537049
H              -13.9648124915        3.9553822305       11.0081971417
H               -9.0797562705        4.6732465689       11.6099654358
H              -12.5503509658        4.4960832803        9.0441795178

K_POINTS automatic 
  3 3 1  0 0 0  

