&CONTROL
  calculation = 'scf'    
  restart_mode = 'from_scratch' 
  prefix = 'Zn100_2x2x4_scf_ABN'  
  outdir = './tmp'       
  pseudo_dir = '/home/ys/qepseudo/SSSP_1.3.0_PBE_efficiency' 
  tprnfor = .true.        
  tstress = .true.       
  verbosity = 'high'      
  max_seconds   =  1.72800e+05 
/

&SYSTEM
  ibrav = 0           
  nat = 47            
  ntyp = 4        
  ecutwfc = 50.0     
  ecutrho = 200.0    
  occupations = 'smearing'
  smearing = 'mv'     
  degauss = 0.02      
  nosym = .TRUE.
/

&ELECTRONS
  conv_thr = 7.35e-7        
  electron_maxstep = 200
  mixing_beta = 0.7   
  diagonalization = 'david'  
  startingwfc = "atomic+random"
  startingpot = "atomic"
/

ATOMIC_SPECIES
  Zn  65.38  Zn_pbe_v1.uspp.F.UPF  
  C  12.0107   C.pbe-n-kjpaw_psl.1.0.0.UPF  
  N  14.0067   N.pbe-n-radius_5.UPF  
  H  1.008   H.pbe-rrkjus_psl.1.0.0.UPF  

CELL_PARAMETERS (angstrom) 
    9.7463216782         0.0000000000         0.0000000000
    0.0000000000         5.2287197113         0.0000000000
    0.0000000000        -13.31162348          23.0564081985

ATOMIC_POSITIONS (angstrom)  
Zn               1.2182902100        1.3071799410        0.7547006760    0   0   0
Zn               1.2182902100        0.0000000130        3.0188027260    0   0   0
Zn               1.2132863937       -1.3117755689        5.6717808165
Zn               1.2181332985       -2.6222875249        8.3272532965
Zn               1.2182902100        3.9215397970        0.7547006760    0   0   0
Zn               1.2182902100        2.6143598690        3.0188027260    0   0   0
Zn               1.2139811193        1.3017353794        5.6727273163
Zn               1.2187799994       -0.0074658724        8.3448473047
Zn               6.0914510490        1.3071799410        0.7547006760    0   0   0
Zn               6.0914510490        0.0000000130        3.0188027260    0   0   0
Zn               6.0906699775       -1.3126405615        5.6729078437
Zn               6.0958930976       -2.6227071144        8.3362992098
Zn               6.0914510490        3.9215397970        0.7547006760    0   0   0
Zn               6.0914510490        2.6143598690        3.0188027260    0   0   0
Zn               6.0905384099        1.3021364355        5.6717347455
Zn               6.0957023985       -0.0067564100        8.3286632221
Zn               3.6548706290       -0.0000000130        1.5094013740    0   0   0
Zn               3.6548706290       -1.3071799410        3.7735034240    0   0   0
Zn               3.6501138969       -2.6218230762        6.0677311250
Zn               3.6550161899       -3.9290502003        8.4754056182
Zn               3.6548706290        2.6143598430        1.5094013740    0   0   0
Zn               3.6548706290        1.3071799150        3.7735034240    0   0   0
Zn               3.6500675966       -0.0018254950        6.0691274687
Zn               3.6586938457       -1.3153845668        8.4239519528
Zn               8.5280314680       -0.0000000130        1.5094013740    0   0   0
Zn               8.5280314680       -1.3071799410        3.7735034240    0   0   0
Zn               8.5268208636       -2.6186196426        6.0809704573
Zn               8.5310546412       -3.9289758500        8.4845128543
Zn               8.5280314680        2.6143598430        1.5094013740    0   0   0
Zn               8.5280314680        1.3071799150        3.7735034240    0   0   0
Zn               8.5257985349       -0.0044510366        6.0803011521
Zn               8.5320372630       -1.3140173672        8.4866534285
C                3.6720762093       -1.5662591578       17.5775269104
C                3.6392878667       -1.4708633903       16.1552479463
C                4.4648450836       -0.5509595848       15.4745736575
C                2.7719774275       -2.2940799803       15.4064856483
C                2.7230916176       -2.1967054494       14.0245438015
C                4.4204570720       -0.4592868917       14.0907191634
C                3.5465632518       -1.2784326690       13.3375400854
N                3.6983249699       -1.6477767041       18.7485906907
N                3.4618393748       -1.1440475801       11.9686584452
H                3.0119426793       -1.8895981137       11.4369998411
H                4.2348446617       -0.6958401503       11.4771096397
H                5.1398066290        0.0932761509       16.0456433337
H                2.1374872396       -3.0172324482       15.9273606240
H                2.0477834182       -2.8453091656       13.4561097344
H                5.0601599312        0.2629858245       13.5721155118

K_POINTS automatic 
  3 3 1  0 0 0  

