&CONTROL
  calculation = 'scf'    
  restart_mode ='restart' 
  prefix = 'Zn002_optimized_topsite_H2O_scf'  
  outdir = './tmp'       
  pseudo_dir = '/home/ys/qepseudo/SSSP_1.3.0_PBE_efficiency' 
  tprnfor = .true.        
  tstress = .true.       
  verbosity = 'high'      
  max_seconds   =  1.72800e+05 
/

&SYSTEM
  ibrav = 0           
  nat = 67            
  ntyp = 3            
  ecutwfc = 30.0     
  ecutrho = 120.0    
  occupations = 'smearing'
  smearing = 'mv'     
  nosym = .TRUE.
  degauss = 0.02      
/

&ELECTRONS
  conv_thr = 1e-8       
  electron_maxstep = 200
  mixing_beta = 0.7   
  diagonalization = 'david'  
  startingwfc = "atomic+random"
  startingpot = "atomic"
/

ATOMIC_SPECIES
  Zn  65.38  Zn_pbe_v1.uspp.F.UPF  
  O  16.000   O.pbe-n-kjpaw_psl.0.1.UPF  
  H  1.008   H.pbe-rrkjus_psl.1.0.0.UPF  

CELL_PARAMETERS (angstrom) 
       10.4574394226         0.0000000000         0.0000000000
       -5.2287197113         9.0564081985         0.0000000000
        0.0000000000         0.0000000000        23.7463226318

ATOMIC_POSITIONS (angstrom)
Zn -0.0000000130 1.5094013740 1.2182902590
Zn 5.2287196980 1.5094013740 1.2182902590
Zn -0.0002721763 1.5079068502 5.9733300350
Zn 5.2292991281 1.5084749535 5.9762933961
Zn -1.3071799410 3.7735034240 1.2182902590
Zn 3.9215397700 3.7735034240 1.2182902590
Zn -1.3024043302 3.7769012645 5.9847513159
Zn 3.9171241621 3.7756311821 5.9808927046
Zn -2.6143598690 6.0376054730 1.2182902590
Zn 2.6143598420 6.0376054730 1.2182902590
Zn -2.6142402266 6.0378328357 5.9746844263
Zn 2.6082976902 6.0350317935 5.9832983864
Zn -3.9215397970 8.3017075230 1.2182902590
Zn 1.3071799140 8.3017075230 1.2182902590
Zn -3.9209428301 8.3013535489 5.9814421070
Zn 1.3064088056 8.2952971930 5.9870739235
Zn 2.6143598430 1.5094013740 1.2182902590
Zn 7.8430795540 1.5094013740 1.2182902590
Zn 2.6149982582 1.5072522709 5.9724353201
Zn 7.8423910874 1.5090366500 5.9749033811
Zn 1.3071799150 3.7735034240 1.2182902590
Zn 6.5358996260 3.7735034240 1.2182902590
Zn 1.3065931650 3.7798376199 5.9824248552
Zn 6.5364257986 3.7726193650 5.9763964419
Zn -0.0000000130 6.0376054730 1.2182902590
Zn 5.2287196980 6.0376054730 1.2182902590
Zn 0.0046106760 6.0350635492 5.9833574198
Zn 5.2303242806 6.0380027346 5.9733954266
Zn -1.3071799410 8.3017075230 1.2182902590
Zn 3.9215397700 8.3017075230 1.2182902590
Zn -1.3072108262 8.3015521054 5.9748896573
Zn 3.9221388476 8.3022997552 5.9744310738
Zn 1.3071799410 0.7547006760 3.6548707760
Zn 6.5358996520 0.7547006760 3.6548707760
Zn 1.3076654734 0.7556007694 8.5354252832
Zn 6.5366595832 0.7526727570 8.5335235152
Zn 0.0000000130 3.0188027250 3.6548707760
Zn 5.2287197240 3.0188027250 3.6548707760
Zn 0.0083062524 3.0314801634 8.4702330095
Zn 5.2286757537 3.0179354674 8.5356873394
Zn -1.3071799150 5.2829047750 3.6548707760
Zn 3.9215397960 5.2829047750 3.6548707760
Zn -1.2908656006 5.2821334021 8.4891293817
Zn 3.9068776963 5.2818653461 8.4667896691
Zn -2.6143598430 7.5470068250 3.6548707760
Zn 2.6143598680 7.5470068250 3.6548707760
Zn -2.6114813087 7.5452013704 8.5316454061
Zn 2.6058961491 7.5310603530 8.4802882479
Zn 3.9215397970 0.7547006760 3.6548707760
Zn 9.1502595080 0.7547006760 3.6548707760
Zn 3.9225626047 0.7516157847 8.5152733392
Zn 9.1510581947 0.7527713376 8.5161980272
Zn 2.6143598690 3.0188027250 3.6548707760
Zn 7.8430795800 3.0188027250 3.6548707760
Zn 2.6077503547 3.0300679038 8.4639638788
Zn 7.8444550917 3.0179413328 8.5343244254
Zn 1.3071799410 5.2829047750 3.6548707760
Zn 6.5358996520 5.2829047750 3.6548707760
Zn 1.3043223564 5.2828918959 9.0052368294
Zn 6.5379906160 5.2828411320 8.5156381733
Zn 0.0000000130 7.5470068250 3.6548707760
Zn 5.2287197240 7.5470068250 3.6548707760
Zn 0.0084896128 7.5319036143 8.4916072752
Zn 5.2278298004 7.5459041333 8.5338831513
O 1.3265365700 5.1993187471 11.4686583623
H 2.2031545026 5.5353015025 11.7552384978
H 1.3431453731 4.2440531888 11.6946772202

K_POINTS automatic 
  3 3 1 0 0 0  

