&CONTROL
  calculation = 'relax'    
  restart_mode ='from_scratch' 
  prefix = '01_Zn002_topsite_upright'  
  outdir = './tmp'       
  pseudo_dir = '/home/yongsang/Research/PSID_server_room/qe/[00]QE/qepseudo/SSSP_1.3.0_PBE_efficiency' 
  tprnfor = .true.        
  tstress = .true.       
  verbosity = 'high'      
  etot_conv_thr = 4.0e-5  
  forc_conv_thr =  8.0e-4 
  max_seconds   =  1.72800e+06 
  nstep         = 100          
/

&SYSTEM
  ibrav = 0           
  nat = 63            
  ntyp = 4            
  ecutwfc = 40.0
  ecutrho = 280.0    
  occupations = 'smearing'
  smearing = 'mv'     
  nosym = .TRUE.
  degauss = 0.02      
  vdw_corr='grimme-d3'
  tot_charge =  0
/

&ELECTRONS
  conv_thr = 1e-6        
  electron_maxstep = 200
  mixing_beta = 0.4   
  diagonalization = 'david'  
  startingwfc = "atomic+random"
  startingpot = "atomic"
/

&IONS
  ion_dynamics = 'bfgs' 
/

&CELL
  cell_dofree = 'all'   
/

ATOMIC_SPECIES
  Zn  65.38  Zn_pbe_v1.uspp.F.UPF  
  N      14.00674  N.pbe-n-radius_5.UPF
  C      12.01070  C.pbe-n-kjpaw_psl.1.0.0.UPF
  H       1.00794  H.pbe-rrkjus_psl.1.0.0.UPF

CELL_PARAMETERS (angstrom) 
       10.4574394226         0.0000000000         0.0000000000
       -5.2287197113         9.0564081985         0.0000000000
        0.0000000000         0.0000000000        23.7463226318

ATOMIC_POSITIONS (angstrom)
Zn               0.0000000000        1.5094010000        1.2182900000    0   0   0
Zn               5.2287200000        1.5094010000        1.2182900000    0   0   0
Zn              -0.0005218045        1.5075043829        6.2013934775
Zn               5.2284775224        1.5064963791        6.2010505770
Zn              -1.3071800000        3.7735030000        1.2182900000    0   0   0
Zn               3.9215400000        3.7735030000        1.2182900000    0   0   0
Zn              -1.3073133650        3.7718725725        6.2102784012
Zn               3.9223928451        3.7707619365        6.1715088198
Zn              -2.6143600000        6.0376050000        1.2182900000    0   0   0
Zn               2.6143600000        6.0376050000        1.2182900000    0   0   0
Zn              -2.6149421691        6.0370905611        6.2021745259
Zn               2.6127505207        6.0419015758        5.9502898207
Zn              -3.9215400000        8.3017080000        1.2182900000    0   0   0
Zn               1.3071800000        8.3017080000        1.2182900000    0   0   0
Zn              -3.9225392728        8.3001662367        6.2096637315
Zn               1.3072546092        8.3007709967        6.1988115970
Zn               2.6143600000        1.5094010000        1.2182900000    0   0   0
Zn               7.8430800000        1.5094010000        1.2182900000    0   0   0
Zn               2.6140195791        1.5088966405        6.2102754586
Zn               7.8420225503        1.5075653589        6.2073031161
Zn               1.3071800000        3.7735030000        1.2182900000    0   0   0
Zn               6.5359000000        3.7735030000        1.2182900000    0   0   0
Zn               1.3048363119        3.7707247607        6.1703641860
Zn               6.5352113379        3.7718757706        6.2099471585
Zn               0.0000000000        6.0376050000        1.2182900000    0   0   0
Zn               5.2287200000        6.0376050000        1.2182900000    0   0   0
Zn              -0.0020556204        6.0356157323        6.1849374168
Zn               5.2288085746        6.0353230544        6.1844129254
Zn              -1.3071800000        8.3017080000        1.2182900000    0   0   0
Zn               3.9215400000        8.3017080000        1.2182900000    0   0   0
Zn              -1.3069223275        8.3004107932        6.2077601572
Zn               3.9209300078        8.3026449163        6.1907786831
Zn               1.3080829208        0.7529223746        3.7116898161
Zn               6.5328761108        0.7574375334        3.7159469456
Zn              -0.0031617005        3.0134695567        3.7160623696
Zn               5.2316733016        3.0128041910        3.7125183492
Zn              -1.3130996028        5.2826012898        3.7132128815
Zn               3.9350463815        5.2747411510        3.6794866763
Zn              -2.6142820167        7.5484993304        3.7114009379
Zn               2.6136626162        7.5645721205        3.6807543307
Zn               3.9195114393        0.7527969971        3.7104594704
Zn               9.1526328133        0.7588260196        3.7133267497
Zn               2.6131207533        3.0094953904        3.7078292188
Zn               7.8430620162        3.0179890133        3.7057495107
Zn               1.2916860470        5.2751910385        3.6807486498
Zn               6.5408257913        5.2828833390        3.7169227348
Zn              -0.0064882329        7.5511551499        3.7121390205
Zn               5.2350477100        7.5507950355        3.7117050807
C                3.6951722695        6.3308494937       12.6474467592
C                2.6528116075        5.6892315250       13.3223414860
C                3.6988604019        6.3853763880       11.2517719187
C                1.6054184624        5.0980251230       12.6110423766
C                2.6446752619        5.7854470919       10.5686470966
C                1.5929990913        5.1421062142       11.2148849254
N                2.6350260793        5.8481072273        9.0943264938
H                4.5100029359        6.7866444390       13.2098339904
H                2.6595077576        5.6451907995       14.4119705964
H                3.5823353150        5.8271776767        8.6678508444
H                4.5064736680        6.8822406741       10.7085702136
H                0.7980318533        4.5974010988       13.1452461592
H                2.1313456225        5.0588961421        8.6441032738
H                0.7827062540        4.6819204277       10.6434678158
H                2.1883312724        6.7016632676        8.7006872995

K_POINTS automatic 
  3 3 1  0 0 0  

