&CONTROL
  calculation = 'scf'    
  restart_mode ='restart' 
  prefix = 'Zn002_optimized_topsite_H2O_scf'  
  outdir = './tmp'       
  pseudo_dir = '/home/ys/qepseudo/SSSP_1.3.0_PBE_efficiency' 
  tprnfor = .true.        
  tstress = .true.       
  verbosity = 'high'      
  max_seconds   =  1.72800e+05 
/

&SYSTEM
  ibrav = 0           
  nat = 67            
  ntyp = 3            
  ecutwfc = 30.0     
  ecutrho = 120.0   
  occupations = 'smearing'
  smearing = 'mv'     
  nosym = .TRUE.
  degauss = 0.02      
/

&ELECTRONS
  conv_thr = 7.35e-7        
  electron_maxstep = 200
  mixing_beta = 0.7   
  diagonalization = 'david'  
  startingwfc = "atomic+random"
  startingpot = "atomic"
/

&IONS
  ion_dynamics = 'bfgs' 
/

&CELL
  cell_dofree = 'all'   
/

ATOMIC_SPECIES
  Zn  65.38  Zn_pbe_v1.uspp.F.UPF  
  O  16.000   O.pbe-n-kjpaw_psl.0.1.UPF  
  H  1.008   H.pbe-rrkjus_psl.1.0.0.UPF  

CELL_PARAMETERS (angstrom) 
       10.4574394226         0.0000000000         0.0000000000
       -5.2287197113         9.0564081985         0.0000000000
        0.0000000000         0.0000000000        23.7463226318

ATOMIC_POSITIONS (angstrom)
Zn -0.0000000130 1.5094013740 1.2182902590
Zn 5.2287196980 1.5094013740 1.2182902590
Zn 0.0011120427 1.5098156786 6.1721139700
Zn 5.2276298567 1.5096812409 6.1878303447
Zn -1.3071799410 3.7735034240 1.2182902590
Zn 3.9215397700 3.7735034240 1.2182902590
Zn -1.3069300877 3.7744055475 6.1790147181
Zn 3.9211654507 3.7735432858 6.1841575930
Zn -2.6143598690 6.0376054730 1.2182902590
Zn 2.6143598420 6.0376054730 1.2182902590
Zn -2.6142664897 6.0378510255 6.1861027382
Zn 2.6141756116 6.0366437837 6.1776090524
Zn -3.9215397970 8.3017075230 1.2182902590
Zn 1.3071799140 8.3017075230 1.2182902590
Zn -3.9206627632 8.3013971165 6.1799331037
Zn 1.3061892394 8.3010083570 6.1815705960
Zn 2.6143598430 1.5094013740 1.2182902590
Zn 7.8430795540 1.5094013740 1.2182902590
Zn 2.6139064777 1.5091536489 6.1808539610
Zn 7.8434993133 1.5104311852 6.1795685079
Zn 1.3071799150 3.7735034240 1.2182902590
Zn 6.5358996260 3.7735034240 1.2182902590
Zn 1.3068490933 3.7733862370 6.1747897063
Zn 6.5361293872 3.7744930338 6.1877720625
Zn -0.0000000130 6.0376054730 1.2182902590
Zn 5.2287196980 6.0376054730 1.2182902590
Zn -0.0010277368 6.0371123597 6.1810339429
Zn 5.2296452053 6.0375740856 6.1834586640
Zn -1.3071799410 8.3017075230 1.2182902590
Zn 3.9215397700 8.3017075230 1.2182902590
Zn -1.3082407216 8.3010985074 6.1862800640
Zn 3.9229243575 8.3012795558 6.1747242960
Zn 1.3071799410 0.7547006760 3.6548707760
Zn 6.5358996520 0.7547006760 3.6548707760
Zn 1.3081480402 0.7544337497 8.6973619154
Zn 6.5388994984 0.7537708526 8.7019495583
Zn 0.0000000130 3.0188027250 3.6548707760
Zn 5.2287197240 3.0188027250 3.6548707760
Zn 0.0047243765 3.0266123321 8.6637193095
Zn 5.2301516721 3.0174279964 8.7041621988
Zn -1.3071799150 5.2829047750 3.6548707760
Zn 3.9215397960 5.2829047750 3.6548707760
Zn -1.3011445757 5.2821202681 8.6901071595
Zn 3.9125257052 5.2815585311 8.6671959343
Zn -2.6143598430 7.5470068250 3.6548707760
Zn 2.6143598680 7.5470068250 3.6548707760
Zn -2.6141133537 7.5460797915 8.7033840012
Zn 2.6102123485 7.5402611667 8.6728206719
Zn 3.9215397970 0.7547006760 3.6548707760
Zn 9.1502595080 0.7547006760 3.6548707760
Zn 3.9206054229 0.7552901761 8.7054698765
Zn 9.1530845037 0.7544696045 8.6970961159
Zn 2.6143598690 3.0188027250 3.6548707760
Zn 7.8430795800 3.0188027250 3.6548707760
Zn 2.6099929769 3.0250967216 8.6637902505
Zn 7.8453991270 3.0163872911 8.7018845379
Zn 1.3071799410 5.2829047750 3.6548707760
Zn 6.5358996520 5.2829047750 3.6548707760
Zn 1.3030768096 5.2858242282 9.0148449805
Zn 6.5344378797 5.2817401006 8.7065509262
Zn 0.0000000130 7.5470068250 3.6548707760
Zn 5.2287197240 7.5470068250 3.6548707760
Zn 0.0027691485 7.5409678374 8.6920384754
Zn 5.2283832881 7.5448785546 8.6978187236
O 1.3206783498 5.1924496818 11.6298289711
H 2.2088709649 5.5192270107 11.8881593881
H 1.3592220343 4.2275633804 11.8035017573

K_POINTS automatic 
  3 3 1  0 0 0  

