&CONTROL
  calculation = 'scf'    
  restart_mode ='from_scratch' 
  prefix = 'Zn002_3layer_relax'  
  outdir = './tmp'       
  pseudo_dir = '/home/yongsang/Research/PSID_server_room/qe/[00]QE/qepseudo/SSSP_1.3.0_PBE_efficiency' 
  tprnfor = .true.        
  tstress = .true.       
  verbosity = 'high'      
  etot_conv_thr = 1.0e-5  
  forc_conv_thr =  5.0e-4 
  max_seconds   =  1.72800e+05 
  nstep         = 100          
  tefield     = .true.
  dipfield    = .true.
  gate        = .true.
/

&SYSTEM
  ibrav = 0           
  nat = 48            
  ntyp = 1            
  ecutwfc = 40.0
  ecutrho = 280.0    
  occupations = 'smearing'
  smearing = 'mv'     
  nosym = .TRUE.
  degauss = 0.02      
  vdw_corr='grimme-d3'
	edir = 3
  zgate       = 0.9
	tot_charge = 1
/

&ELECTRONS
  conv_thr = 1e-6        
  electron_maxstep = 200
  mixing_beta = 0.4   
  diagonalization = 'david'  
  startingwfc = "atomic+random"
  startingpot = "atomic"
/

&IONS
  ion_dynamics = 'bfgs' 
/

&CELL
  cell_dofree = 'all'   
/

ATOMIC_SPECIES
  Zn  65.38  Zn_pbe_v1.uspp.F.UPF  

CELL_PARAMETERS (angstrom) 
       10.4574394226         0.0000000000         0.0000000000
       -5.2287197113         9.0564081985         0.0000000000
        0.0000000000         0.0000000000        23.7463226318

ATOMIC_POSITIONS (angstrom)
Zn               0.0000000000        1.5094010000        1.2182900000    0   0   0
Zn               5.2287200000        1.5094010000        1.2182900000    0   0   0
Zn              -0.0000295242        1.5093100836        6.1627222677
Zn               5.2287855090        1.5102240454        6.1638493075
Zn              -1.3071800000        3.7735030000        1.2182900000    0   0   0
Zn               3.9215400000        3.7735030000        1.2182900000    0   0   0
Zn              -1.3077223284        3.7740258440        6.1629587774
Zn               3.9221248309        3.7744160599        6.1628402142
Zn              -2.6143600000        6.0376050000        1.2182900000    0   0   0
Zn               2.6143600000        6.0376050000        1.2182900000    0   0   0
Zn              -2.6151492611        6.0371996707        6.1626339098
Zn               2.6150977159        6.0372825207        6.1632832564
Zn              -3.9215400000        8.3017080000        1.2182900000    0   0   0
Zn               1.3071800000        8.3017080000        1.2182900000    0   0   0
Zn              -3.9218349529        8.3007180779        6.1624873501
Zn               1.3074532867        8.3012397707        6.1642396095
Zn               2.6143600000        1.5094010000        1.2182900000    0   0   0
Zn               7.8430800000        1.5094010000        1.2182900000    0   0   0
Zn               2.6142224358        1.5095489592        6.1628403062
Zn               7.8431742227        1.5099540152        6.1637933875
Zn               1.3071800000        3.7735030000        1.2182900000    0   0   0
Zn               6.5359000000        3.7735030000        1.2182900000    0   0   0
Zn               1.3073143044        3.7739013444        6.1627625068
Zn               6.5357189081        3.7745378166        6.1628835300
Zn               0.0000000000        6.0376050000        1.2182900000    0   0   0
Zn               5.2287200000        6.0376050000        1.2182900000    0   0   0
Zn              -0.0002891573        6.0372263285        6.1634442694
Zn               5.2290382635        6.0372452219        6.1623846302
Zn              -1.3071800000        8.3017080000        1.2182900000    0   0   0
Zn               3.9215400000        8.3017080000        1.2182900000    0   0   0
Zn              -1.3077485846        8.3010559907        6.1634728384
Zn               3.9220934955        8.3009130525        6.1632618261
Zn               1.3067660044        0.7542510564        3.6896165056
Zn               6.5363196642        0.7556362650        3.6918082616
Zn              -0.0009504533        3.0194363528        3.6906057150
Zn               5.2296699809        3.0202370535        3.6918587932
Zn              -1.3083505915        5.2824355062        3.6916980251
Zn               3.9227056408        5.2828646867        3.6918564579
Zn              -2.6149651840        7.5454960506        3.6907884329
Zn               2.6149676292        7.5465224925        3.6917284211
Zn               3.9222115966        0.7551315231        3.6905303951
Zn               9.1495640261        0.7547390371        3.6910127271
Zn               2.6152891471        3.0199287198        3.6904787489
Zn               7.8421282796        3.0197464424        3.6920114770
Zn               1.3075838698        5.2830750565        3.6913641639
Zn               6.5354964084        5.2822581357        3.6922143305
Zn               0.0001626705        7.5465125270        3.6913496784
Zn               5.2285427394        7.5454782772        3.6911006978

K_POINTS automatic 
  3 3 1  0 0 0  

