&CONTROL
  calculation = 'relax'    
  restart_mode ='from_scratch' 
  prefix = 'Zn101_3layer_ptoluidine_relax'  
  outdir = './tmp'       
  pseudo_dir = '/home/ys/qepseudo/SSSP_1.3.0_PBE_efficiency' 
  tprnfor = .true.        
  tstress = .true.       
  verbosity = 'high'      
  etot_conv_thr = 5.0e-5  
  forc_conv_thr =  1.0e-3
  max_seconds   =  1.72800e+06
  nstep         = 300          
/

&SYSTEM
  ibrav = 0           
  nat = 62            
  ntyp = 4            
  ecutwfc = 40.0
  ecutrho = 280.0    
  occupations = 'smearing'
  smearing = 'mv'     
  nosym = .TRUE.
  degauss = 0.02      
  vdw_corr='grimme-d3'
/

&ELECTRONS
  conv_thr = 1e-6 
  electron_maxstep = 200
  mixing_beta = 0.4   
  diagonalization = 'david'  
  startingwfc = "atomic+random"
  startingpot = "atomic"
/

&IONS
  ion_dynamics = 'bfgs' 
/

&CELL
  cell_dofree = 'all'   
/

ATOMIC_SPECIES
  Zn  65.38  Zn_pbe_v1.uspp.F.UPF  
  N      14.00674  N.pbe-n-radius_5.UPF
  C      12.01070  C.pbe-n-kjpaw_psl.1.0.0.UPF
  H       1.00794  H.pbe-rrkjus_psl.1.0.0.UPF


CELL_PARAMETERS (angstrom) 
       11.0603027344         0.0000000000         0.0000000000
       -2.4718588623        10.1610999917         0.0000000000
      -46.4560228483       -11.3012106837        22.2132348689
        
ATOMIC_POSITIONS (angstrom)
Zn              -1.0735560000        1.0841420000        1.1977640000    0   0   0
Zn              -2.3094850000        6.1646920000        1.1977640000    0   0   0
Zn              -4.9120238577        0.1516636200        3.6171939599
Zn              -6.1475429248        5.2311135134        3.6164890485
Zn              -8.8927452501       -0.8163233681        5.7674889540
Zn             -10.1217550621        4.2508811453        5.7777689467
Zn              -1.6915200000        3.6244170000        1.1977640000    0   0   0
Zn              -2.9274500000        8.7049670000        1.1977640000    0   0   0
Zn              -5.5280863273        2.6913253307        3.6149156323
Zn              -6.7657346631        7.7719016223        3.6180045236
Zn              -9.5128556161        1.7157792738        5.7150605611
Zn             -10.7385626496        6.8018273465        5.7588231680
Zn               4.4565960000        1.0841420000        1.1977640000    0   0   0
Zn               3.2206660000        6.1646920000        1.1977640000    0   0   0
Zn               0.6125681340        0.1497302829        3.5724252238
Zn              -0.6197793391        5.2291241959        3.5864200591
Zn              -3.3124006822       -0.8089122552        5.7479682632
Zn              -4.5496020364        4.2690449602        5.7480010349
Zn               3.8386310000        3.6244170000        1.1977640000    0   0   0
Zn               2.6027020000        8.7049670000        1.1977640000    0   0   0
Zn              -0.0062813854        2.6906452748        3.5735633476
Zn              -1.2375996557        7.7728138914        3.5832599148
Zn              -3.9308604452        1.7288581079        5.7484001176
Zn              -5.1668158478        6.8112713261        5.7476340404
Zn               1.6915200000        0.4114910000        0.8555450000    0   0   0
Zn               0.4555910000        5.4920410000        0.8555450000    0   0   0
Zn              -2.3503955497       -0.5765110542        2.9445242987
Zn              -3.5869822591        4.5059729383        2.9426342463
Zn              -6.3757698394       -1.5489635693        5.1372396799
Zn              -7.6057112802        3.5294562932        5.1421104356
Zn               1.0735560000        2.9517660000        0.8555450000    0   0   0
Zn              -0.1623740000        8.0323160000        0.8555450000    0   0   0
Zn              -2.9679564949        1.9641524539        2.9444758236
Zn              -4.2058010461        7.0456879403        2.9423316169
Zn              -6.9889471646        0.9905381736        5.1416789713
Zn              -8.2300811780        6.0675974703        5.1395849060
Zn               7.2216720000        0.4114910000        0.8555450000    0   0   0
Zn               5.9857420000        5.4920410000        0.8555450000    0   0   0
Zn               3.1827557495       -0.5745781488        2.9506766286
Zn               1.9484076823        4.5054626066        2.9442308458
Zn              -0.8008506729       -1.5390543196        5.1532925272
Zn              -2.0385382798        3.5381679362        5.1524547816
Zn               6.6037070000        2.9517660000        0.8555450000    0   0   0
Zn               5.3677780000        8.0323160000        0.8555450000    0   0   0
Zn               2.5643205293        1.9643404448        2.9531881407
Zn               1.3311842640        7.0469610206        2.9393750198
Zn              -1.4168282416        0.9999825481        5.1582938046
Zn              -2.6584702273        6.0796572792        5.1474881330
C               -9.5452600298        1.3211821810       14.6643016314
C               -9.0316577773        0.2560638949       11.2277420950
C               -9.7488367876        2.6304961798       12.5733641293
C               -9.4494518834        1.4902816370       10.5312652402
C               -9.3895946267        1.3691105050       13.3172349078
C               -9.7750076580        2.6688548018       11.2395118413
C               -8.8994635147        0.2693842989       12.5572030134
N               -9.4715444271        1.4569880609        9.2049672479
H              -10.0119532659        2.1286501262       15.2321878822
H               -8.8886354444       -0.6338219398       10.6022024710
H               -9.9439369376        3.5096891521       13.1985003331
H               -9.2226078599        0.4241392175       15.1807640804
H               -9.6559869617        2.3096578671        8.6804933631
H               -9.2690149065        0.6063947799        8.6880333041

K_POINTS automatic 
  3 3 1  0 0 0  

