&CONTROL
  calculation = 'relax'    
  restart_mode ='restart' 
  prefix = 'Zn002_3layer_ABN_relax'  
  outdir = './tmp'       
  pseudo_dir = '/home/ys/qepseudo/SSSP_1.3.0_PBE_efficiency' 
  tprnfor = .true.        
  tstress = .true.       
  verbosity = 'high'      
  etot_conv_thr = 1.0e-5  
  forc_conv_thr =  5.0e-4 
  max_seconds   =  1.72800e+05 
  nstep         = 100          
/

&SYSTEM
  ibrav = 0           
  nat = 63            
  ntyp = 4            
  ecutwfc = 40.0
  ecutrho = 280.0    
  occupations = 'smearing'
  smearing = 'mv'     
  nosym = .TRUE.
  degauss = 0.02      
  vdw_corr='grimme-d3'
/

&ELECTRONS
  conv_thr = 1e-6        
  electron_maxstep = 200
  mixing_beta = 0.4   
  diagonalization = 'david'  
  startingwfc = "atomic+random"
  startingpot = "atomic"
/

&IONS
  ion_dynamics = 'bfgs' 
/

&CELL
  cell_dofree = 'all'   
/

ATOMIC_SPECIES
  Zn  65.38  Zn_pbe_v1.uspp.F.UPF  
  N      14.00674  N.pbe-n-radius_5.UPF
  C      12.01070  C.pbe-n-kjpaw_psl.1.0.0.UPF
  H       1.00794  H.pbe-rrkjus_psl.1.0.0.UPF

CELL_PARAMETERS (angstrom) 
       10.4574394226         0.0000000000         0.0000000000
       -5.2287197113         9.0564081985         0.0000000000
        0.0000000000         0.0000000000        23.7463226318

ATOMIC_POSITIONS (angstrom)
Zn               0.0000000000        1.5094010000        1.2182900000    0   0   0
Zn               5.2287200000        1.5094010000        1.2182900000    0   0   0
Zn               0.0006985058        1.5125058706        6.1972685630
Zn               5.2278339870        1.5119647804        6.1990115078
Zn              -1.3071800000        3.7735030000        1.2182900000    0   0   0
Zn               3.9215400000        3.7735030000        1.2182900000    0   0   0
Zn              -1.3090306911        3.7747971161        6.2032314986
Zn               3.9181999172        3.7761462739        6.1100768046
Zn              -2.6143600000        6.0376050000        1.2182900000    0   0   0
Zn               2.6143600000        6.0376050000        1.2182900000    0   0   0
Zn              -2.6158577891        6.0379852879        6.2017376836
Zn               2.6125206212        6.0404969493        6.1995616406
Zn              -3.9215400000        8.3017080000        1.2182900000    0   0   0
Zn               1.3071800000        8.3017080000        1.2182900000    0   0   0
Zn              -3.9205504610        8.3038140685        6.1907115132
Zn               1.3059606864        8.3039772553        6.2026377887
Zn               2.6143600000        1.5094010000        1.2182900000    0   0   0
Zn               7.8430800000        1.5094010000        1.2182900000    0   0   0
Zn               2.6139835463        1.5098439161        6.1824354078
Zn               7.8383501149        1.5132614242        6.2039977588
Zn               1.3071800000        3.7735030000        1.2182900000    0   0   0
Zn               6.5359000000        3.7735030000        1.2182900000    0   0   0
Zn               1.3049967942        3.7755613440        6.1977568293
Zn               6.5336217466        3.7748661387        6.1993251778
Zn               0.0000000000        6.0376050000        1.2182900000    0   0   0
Zn               5.2287200000        6.0376050000        1.2182900000    0   0   0
Zn               0.0020145767        6.0387302154        6.2030005718
Zn               5.2291787542        6.0400134491        6.1785215204
Zn              -1.3071800000        8.3017080000        1.2182900000    0   0   0
Zn               3.9215400000        8.3017080000        1.2182900000    0   0   0
Zn              -1.3066374298        8.3052916551        6.1998702579
Zn               3.9198866654        8.3019237659        6.1981122678
Zn               1.3076948907        0.7536275813        3.7099167862
Zn               6.5348445894        0.7560825752        3.7008829760
Zn              -0.0015511945        3.0203498075        3.7023303529
Zn               5.2339864905        3.0153624982        3.7180517234
Zn              -1.3067068346        5.2837535105        3.7017655737
Zn               3.9199924483        5.2882157027        3.7152973069
Zn              -2.6145883132        7.5498517405        3.7065507221
Zn               2.6116027918        7.5492757649        3.7007468412
Zn               3.9220924238        0.7537353544        3.7113464182
Zn               9.1492502465        0.7559912125        3.7032003462
Zn               2.6101308672        3.0170278292        3.7161165275
Zn               7.8419155251        3.0188033655        3.7008848019
Zn               1.3047367859        5.2860613027        3.7040506280
Zn               6.5378090885        5.2838869223        3.7085512569
Zn               0.0007896293        7.5489278131        3.7021461576
Zn               5.2301742065        7.5502248291        3.7083363716
C                4.2451831642        3.8472812902       15.1067195877
C                4.2074430745        3.8372104887       13.6822510799
C                4.8172006043        4.8690640885       12.9386668602
C                3.5670772690        2.7904997763       12.9874836505
C                4.7914009821        4.8543983111       11.5519567667
C                3.5391642994        2.7754490909       11.6013229443
C                4.1543886422        3.8045204386       10.8527027468
N                4.2764738517        3.8492623928       16.2745347662
N                4.1399856240        3.7801819949        9.4837377327
H                3.6817084767        3.0364531597        8.9725951790
H                4.5700560235        4.5152725242        8.9369582527
H                3.0929471678        1.9867031949       13.5531791893
H                5.3164077289        5.6809987198       13.4667938512
H                3.0413477546        1.9567494713       11.0772785892
H                5.2706616000        5.6603756530       10.9906770910

K_POINTS automatic 
  3 3 1  0 0 0  

