&CONTROL
  calculation = 'relax'    
  restart_mode ='from_scratch' 
  prefix = 'Zn100_optimized_topsite_H2O'  
  outdir = './tmp'       
  pseudo_dir = '/home/ys/qepseudo/SSSP_1.3.0_PBE_efficiency' 
  tprnfor = .true.        
  tstress = .true.       
  verbosity = 'high'      
  etot_conv_thr = 1.0e-5  
  forc_conv_thr =  5.0e-4 
  max_seconds   =  1.72800e+05 
  nstep         = 100          
/

&SYSTEM
  ibrav = 0           
  nat = 67            
  ntyp = 3            
  ecutwfc = 30.0     
  ecutrho = 120.0    
  occupations = 'smearing'
  smearing = 'mv'     
  nosym = .TRUE.
  degauss = 0.02      
/

&ELECTRONS
  conv_thr = 7.35e-7        
  electron_maxstep = 200
  mixing_beta = 0.7   
  diagonalization = 'david'  
  startingwfc = "atomic+random"
  startingpot = "atomic"
/

&IONS
  ion_dynamics = 'bfgs' 
/

&CELL
  cell_dofree = 'all'   
/

ATOMIC_SPECIES
  Zn  65.38  Zn_pbe_v1.uspp.F.UPF  
  O  16.000   O.pbe-n-kjpaw_psl.0.1.UPF  
  H  1.008   H.pbe-rrkjus_psl.1.0.0.UPF  

CELL_PARAMETERS (angstrom) 
        9.7463216782         0.0000000000         0.0000000000
        0.0000000000        10.4574394226         0.0000000000
        0.0000000000       -13.3116235733        23.0564083602

ATOMIC_POSITIONS (angstrom)  
Zn  1.2182902100  1.3071799380  0.7547006810  0 0 0
Zn  1.2182902100  6.5358996490  0.7547006810  0 0 0
Zn  1.2182902100  0.0000000010  3.0188027470  0 0 0
Zn  1.2182902100  5.2287197120  3.0188027470  0 0 0
Zn  1.2185726075  -1.3073880994  5.6729282852  1 1 1
Zn  1.2186851431  3.9215451479  5.6720151579  1 1 1
Zn  1.2169874041  -2.6115877399  8.3029133375  1 1 1
Zn  1.2215188460  2.6120984572  8.3127137413  1 1 1
Zn  1.2182902100  3.9215397940  0.7547006810  0 0 0
Zn  1.2182902100  9.1502595050  0.7547006810  0 0 0
Zn  1.2182902100  2.6143598570  3.0188027470  0 0 0
Zn  1.2182902100  7.8430795680  3.0188027470  0 0 0
Zn  1.2186883199  1.3072854268  5.6723424169  1 1 1
Zn  1.2185625130  6.5357747424  5.6727099542  1 1 1
Zn  1.2196363602  -0.0085023437  8.3009406689  1 1 1
Zn  1.2207986525  5.2356506202  8.3074856114  1 1 1
Zn  6.0914510490  1.3071799380  0.7547006810  0 0 0
Zn  6.0914510490  6.5358996490  0.7547006810  0 0 0
Zn  6.0914510490  0.0000000010  3.0188027470  0 0 0
Zn  6.0914510490  5.2287197120  3.0188027470  0 0 0
Zn  6.0911338514  -1.3072242637  5.6748546444  1 1 1
Zn  6.0910857638  3.9213990650  5.6741431289  1 1 1
Zn  6.0931312919  -2.6180034949  8.3042935187  1 1 1
Zn  6.0856820569  2.5986985018  8.5896624219  1 1 1
Zn  6.0914510490  3.9215397940  0.7547006810  0 0 0
Zn  6.0914510490  9.1502595050  0.7547006810  0 0 0
Zn  6.0914510490  2.6143598570  3.0188027470  0 0 0
Zn  6.0914510490  7.8430795680  3.0188027470  0 0 0
Zn  6.0911030401  1.3076064174  5.6744400348  1 1 1
Zn  6.0911314819  6.5354481156  5.6746346244  1 1 1
Zn  6.0900709053  -0.0143032747  8.2363913577  1 1 1
Zn  6.0912728680  5.2237319143  8.3109510186  1 1 1
Zn  3.6548706290  -0.0000000190  1.5094013850  0 0 0
Zn  3.6548706290  5.2287196920  1.5094013850  0 0 0
Zn  3.6548706290  -1.3071799560  3.7735034500  0 0 0
Zn  3.6548706290  3.9215397550  3.7735034500  0 0 0
Zn  3.6546710580  -2.6147701593  6.0778389286  1 1 1
Zn  3.6547432516  2.6146750712  6.0771464013  1 1 1
Zn  3.6467618210  -3.9149647247  8.4776969683  1 1 1
Zn  3.6400774773  1.2966806924  8.4406935589  1 1 1
Zn  3.6548706290  2.6143598370  1.5094013850  0 0 0
Zn  3.6548706290  7.8430795480  1.5094013850  0 0 0
Zn  3.6548706290  1.3071799000  3.7735034500  0 0 0
Zn  3.6548706290  6.5358996110  3.7735034500  0 0 0
Zn  3.6547437702  0.0001669099  6.0773502731  1 1 1
Zn  3.6547864959  5.2284186199  6.0775758154  1 1 1
Zn  3.6444612149  -1.3090898834  8.4730530761  1 1 1
Zn  3.6541637901  3.9199986668  8.4790122231  1 1 1
Zn  8.5280314680  -0.0000000190  1.5094013850  0 0 0
Zn  8.5280314680  5.2287196920  1.5094013850  0 0 0
Zn  8.5280314680  -1.3071799560  3.7735034500  0 0 0
Zn  8.5280314680  3.9215397550  3.7735034500  0 0 0
Zn  8.5281647867  -2.6147587956  6.0779299812  1 1 1
Zn  8.5281732184  2.6146472247  6.0772010317  1 1 1
Zn  8.5365551755  -3.9148378455  8.4774271612  1 1 1
Zn  8.5535674605  1.2953028940  8.4297336753  1 1 1
Zn  8.5280314680  2.6143598370  1.5094013850  0 0 0
Zn  8.5280314680  7.8430795480  1.5094013850  0 0 0
Zn  8.5280314680  1.3071799000  3.7735034500  0 0 0
Zn  8.5280314680  6.5358996110  3.7735034500  0 0 0
Zn  8.5282171944  -0.0000137934  6.0774321744  1 1 1
Zn  8.5281738077  5.2286143460  6.0776528160  1 1 1
Zn  8.5375639103  -1.3085151881  8.4730439800  1 1 1
Zn  8.5391093579  3.9238022953  8.4494261255  1 1 1
O  6.1796725976  2.3342280219  11.3944933212  1 1 1
H  7.1469290499  2.3131444470  11.5653156192  1 1 1
H  5.8747168831  1.4145197842  11.5700259592  1 1 1

K_POINTS automatic 
  2 2 1 0 0 0  

