&CONTROL
  calculation = 'relax'    
  restart_mode ='from_scratch' 
  prefix = '05_Zn002_ABN_topsite_tilted_edgeon'  
  outdir = './tmp'       
  pseudo_dir = '/home/ys/qepseudo/SSSP_1.3.0_PBE_efficiency' 
  tprnfor = .true.        
  tstress = .true.       
  verbosity = 'high'      
  etot_conv_thr = 1.0e-5  
  forc_conv_thr =  5.0e-4 
  max_seconds   =  1.72800e+06
  nstep         = 100          
/

&SYSTEM
  ibrav = 0           
  nat = 63            
  ntyp = 4            
  ecutwfc = 40.0
  ecutrho = 280.0    
  occupations = 'smearing'
  smearing = 'mv'     
  nosym = .TRUE.
  degauss = 0.02      
  vdw_corr='grimme-d3'
/

&ELECTRONS
  conv_thr = 1e-6        
  electron_maxstep = 200
  mixing_beta = 0.4   
  diagonalization = 'david'  
  startingwfc = "atomic+random"
  startingpot = "atomic"
/

&IONS
  ion_dynamics = 'bfgs' 
/

&CELL
  cell_dofree = 'all'   
/

ATOMIC_SPECIES
  Zn  65.38  Zn_pbe_v1.uspp.F.UPF  
  N      14.00674  N.pbe-n-radius_5.UPF
  C      12.01070  C.pbe-n-kjpaw_psl.1.0.0.UPF
  H       1.00794  H.pbe-rrkjus_psl.1.0.0.UPF

CELL_PARAMETERS (angstrom) 
       10.4574394226         0.0000000000         0.0000000000
       -5.2287197113         9.0564081985         0.0000000000
        0.0000000000         0.0000000000        23.7463226318

ATOMIC_POSITIONS (angstrom)
Zn               0.0000000000        1.5094010000        1.2182900000    0   0   0
Zn               5.2287200000        1.5094010000        1.2182900000    0   0   0
Zn               0.0006513257        1.5084542574        6.2054956426
Zn               5.2324502171        1.5037981534        6.2151987538
Zn              -1.3071800000        3.7735030000        1.2182900000    0   0   0
Zn               3.9215400000        3.7735030000        1.2182900000    0   0   0
Zn              -1.3026750446        3.7657260246        6.2110878556
Zn               3.9255047727        3.7704309352        6.1738513068
Zn              -2.6143600000        6.0376050000        1.2182900000    0   0   0
Zn               2.6143600000        6.0376050000        1.2182900000    0   0   0
Zn              -2.6075741445        6.0300594918        6.2060019802
Zn               2.6112559522        6.0338145780        6.2220087491
Zn              -3.9215400000        8.3017080000        1.2182900000    0   0   0
Zn               1.3071800000        8.3017080000        1.2182900000    0   0   0
Zn              -3.9176692991        8.2998879453        6.1987432778
Zn               1.3073655507        8.2988984550        6.2119269812
Zn               2.6143600000        1.5094010000        1.2182900000    0   0   0
Zn               7.8430800000        1.5094010000        1.2182900000    0   0   0
Zn               2.6161398746        1.5045479401        6.1997297302
Zn               7.8444993560        1.5058723288        6.2127812358
Zn               1.3071800000        3.7735030000        1.2182900000    0   0   0
Zn               6.5359000000        3.7735030000        1.2182900000    0   0   0
Zn               1.3072025570        3.7679151510        6.2095208300
Zn               6.5432340712        3.7644143717        6.2193146878
Zn               0.0000000000        6.0376050000        1.2182900000    0   0   0
Zn               5.2287200000        6.0376050000        1.2182900000    0   0   0
Zn               0.0031844546        6.0310445936        6.2125191784
Zn               5.2326211316        6.0334332079        6.2169226513
Zn              -1.3071800000        8.3017080000        1.2182900000    0   0   0
Zn               3.9215400000        8.3017080000        1.2182900000    0   0   0
Zn              -1.3013659148        8.2978862475        6.2075581031
Zn               3.9201991442        8.3008524903        6.2054446064
Zn               1.3095222303        0.7552913902        3.7264946905
Zn               6.5368581307        0.7520790165        3.7062957748
Zn               0.0021262172        3.0160456850        3.7114234641
Zn               5.2302158068        3.0129568167        3.7301570496
Zn              -1.3020598059        5.2771519565        3.7040922413
Zn               3.9200914627        5.2785719534        3.7318509154
Zn              -2.6110354033        7.5463444674        3.7181481164
Zn               2.6126192126        7.5443730327        3.7077704123
Zn               3.9239019680        0.7526504006        3.7260955261
Zn               9.1504815186        0.7549853887        3.7086579595
Zn               2.6142122806        3.0156156249        3.7389503447
Zn               7.8456267779        3.0133801515        3.7032861794
Zn               1.3087557834        5.2787173002        3.7162579683
Zn               6.5374443694        5.2772295127        3.7171603787
Zn               0.0039342567        7.5452038792        3.7080687371
Zn               5.2295285947        7.5452861502        3.7167586361
C                4.6676003691        5.3941260000       14.7067853141
C                4.3677479420        4.8472397599       13.4242634550
C                4.7715517498        5.5109579594       12.2474165475
C                3.6866652648        3.6169736601       13.3113251579
C                4.5106719287        4.9534945857       11.0036311195
C                3.4259515135        3.0567613611       12.0696348413
C                3.8508540138        3.7087722441       10.8939518196
N                4.9175895498        5.8323764918       15.7602193437
N                3.6855304705        3.1096241762        9.6605538380
H                2.9710129427        2.3958107608        9.5651901815
H                3.7368395517        3.7127810130        8.8461030822
H                3.3732938751        3.0974918700       14.2158222807
H                5.3016046793        6.4637314514       12.3171526495
H                2.9026518604        2.0986131454       12.0001391457
H                4.8300566470        5.4678134005       10.0929423583

K_POINTS automatic 
  3 3 1  0 0 0  

