&CONTROL
  calculation = 'relax'    
  restart_mode ='from_scratch' 
  prefix = '04_Zn100_ABN_topsite_lean'  
  outdir = './tmp'       
  pseudo_dir = '/home/ys/qepseudo/SSSP_1.3.0_PBE_efficiency' 
  tprnfor = .true.        
  tstress = .true.       
  verbosity = 'high'      
  etot_conv_thr = 1.0e-5  
  forc_conv_thr =  5.0e-4 
  max_seconds   =  1.72800e+06
  nstep         = 500          
/

&SYSTEM
  ibrav = 0           
  nat = 63            
  ntyp = 4            
  ecutwfc = 40.0
  ecutrho = 280.0    
  occupations = 'smearing'
  smearing = 'mv'     
  nosym = .TRUE.
  degauss = 0.02      
  vdw_corr='grimme-d3'
/

&ELECTRONS
  conv_thr = 1e-6        
  electron_maxstep = 200
  mixing_beta = 0.4   
  diagonalization = 'david'  
  startingwfc = "atomic+random"
  startingpot = "atomic"
/

&IONS
  ion_dynamics = 'bfgs' 
/

&CELL
  cell_dofree = 'all'   
/

ATOMIC_SPECIES
  Zn  65.38  Zn_pbe_v1.uspp.F.UPF  
  N      14.00674  N.pbe-n-radius_5.UPF
  C      12.01070  C.pbe-n-kjpaw_psl.1.0.0.UPF
  H       1.00794  H.pbe-rrkjus_psl.1.0.0.UPF

CELL_PARAMETERS (angstrom) 
        9.7463216782         0.0000000000         0.0000000000
        0.0000000000        10.4574394226         0.0000000000
        0.0000000000       -13.3116235733        23.0564083602

ATOMIC_POSITIONS (angstrom)
Zn               1.2182900000        1.3071800000        0.7547010000    0   0   0
Zn               1.2182900000        6.5359000001        0.7547010000    0   0   0
Zn               1.9329040462       -0.0035608379        3.6489934988
Zn               1.9394698468        5.2266572623        3.6529021581
Zn               1.2361963474       -1.3077804956        6.0842706839
Zn               1.2360659102        3.9194890933        6.0826824061
Zn               1.2182900000        3.9215400000        0.7547010000    0   0   0
Zn               1.2182900000        9.1502600000        0.7547010000    0   0   0
Zn               1.9376389394        2.6116086355        3.6578534626
Zn               1.9441598176        7.8425122115        3.6629595978
Zn               1.2299009917        1.3015854593        6.0740761766
Zn               1.2449222206        6.5381973067        6.0861333997
Zn               6.0914510000        1.3071800000        0.7547010000    0   0   0
Zn               6.0914510000        6.5359000001        0.7547010000    0   0   0
Zn               6.8102047734       -0.0108376586        3.6345826233
Zn               6.8155331456        5.2300581054        3.6311693819
Zn               6.1156334699       -1.3164703297        6.1565930359
Zn               6.1144755632        3.9164670293        6.0601688984
Zn               6.0914510000        3.9215400000        0.7547010000    0   0   0
Zn               6.0914510000        9.1502600000        0.7547010000    0   0   0
Zn               6.8147615886        2.6110018803        3.6366157392
Zn               6.8135539729        7.8460855003        3.6492107087
Zn               6.1063017616        1.3010490607        6.0151804703
Zn               6.1183057749        6.5284628810        6.0602624408
Zn               3.6548710000        0.0000000000        1.5094010000    0   0   0
Zn               3.6548710000        5.2287200000        1.5094010000    0   0   0
Zn               4.4645439107       -1.3103508630        3.6794973738
Zn               4.4654406029        3.9209985158        3.6657099764
Zn               3.6865998431       -2.6105564054        6.0110026353
Zn               3.6727688948        2.6175035559        5.9885445834
Zn               3.6548710000        2.6143600000        1.5094010000    0   0   0
Zn               3.6548710000        7.8430800001        1.5094010000    0   0   0
Zn               4.4495134339        1.3051362502        3.6785107614
Zn               4.4535242726        6.5382931232        3.6874929063
Zn               3.6694556044       -0.0056433312        5.9702634379
Zn               3.6694446933        5.2260038739        5.9658019261
Zn               8.5280310000        0.0000000000        1.5094010000    0   0   0
Zn               8.5280310000        5.2287200000        1.5094010000    0   0   0
Zn               9.3314820973       -1.3106376651        3.6889110468
Zn               9.3368451430        3.9209109026        3.6853513637
Zn               8.5395328303       -2.6136732476        6.0162717851
Zn               8.5393002341        2.6086334877        5.9856498352
Zn               8.5280310000        2.6143600000        1.5094010000    0   0   0
Zn               8.5280310000        7.8430800001        1.5094010000    0   0   0
Zn               9.3295998897        1.3021174368        3.6853266813
Zn               9.3328988715        6.5359993013        3.6985735980
Zn               8.5335353440       -0.0013478191        6.0094020535
Zn               8.5464706024        5.2217109121        6.0044080217
C                5.8165787243       -0.0884599451        9.3513388229
C                5.4131176656        1.2745661724        9.3619621934
C                6.3567543174        2.3228560413        9.3711016456
C                4.0408036164        1.6014038888        9.3074110390
C                5.9457154433        3.6476252187        9.3384947562
C                3.6286140968        2.9232524216        9.2686122101
C                4.5710398220        3.9793295667        9.2912349293
N                6.1168258075       -1.2185200883        9.2992464026
N                4.1594643512        5.2821334142        9.2676547912
H                3.2077179555        5.4907862695        8.9837217271
H                4.8328444683        6.0162321123        9.0715066793
H                3.2991024333        0.8034050947        9.2695990181
H                7.4201333571        2.0849063089        9.3820990293
H                2.5633200138        3.1533776204        9.2124570554
H                6.6903404956        4.4446915051        9.3333109834

K_POINTS automatic 
  3 3 1  0 0 0  

