&CONTROL
  calculation = 'relax'    
  restart_mode = 'restart' 
  prefix = 'Zn100_2x4x4_primitive_atoms32_14Avacumn_ABN_topsite_upright'  
  outdir = './tmp'       
  pseudo_dir = '/home/ys/qepseudo/SSSP_1.3.0_PBE_efficiency' 
  tprnfor = .true.        
  tstress = .true.       
  verbosity = 'high'      
  etot_conv_thr = 1.0e-5  
  forc_conv_thr =  5.0e-4 

  max_seconds   =  1.72800e+05 
  nstep         = 100          
/

&SYSTEM
  ibrav = 0           
  nat = 79            
  ntyp = 4            
  ecutwfc = 30.0     
  ecutrho = 120.0    
  occupations = 'smearing'
  smearing = 'mv'     
  degauss = 0.02      
  nosym = .TRUE.
/

&ELECTRONS
  conv_thr = 7.35e-7        
  electron_maxstep = 200
  mixing_beta = 0.7   
  diagonalization = 'david'  
  startingwfc = "atomic+random"
  startingpot = "atomic"
/

&IONS
  ion_dynamics = 'bfgs' 
/

&CELL
  cell_dofree = 'all'   
/

ATOMIC_SPECIES
  Zn  65.38  Zn_pbe_v1.uspp.F.UPF  
  C  12.0107   C.pbe-n-kjpaw_psl.1.0.0.UPF  
  N  14.0067   N.pbe-n-radius_5.UPF  
  H  1.008   H.pbe-rrkjus_psl.1.0.0.UPF  

CELL_PARAMETERS (angstrom) 
        9.7463216782         0.0000000000         0.0000000000
        0.0000000000        10.4574394226         0.0000000000
        0.0000000000       -13.3116235733        23.0564083602

ATOMIC_POSITIONS (angstrom)  
Zn 1.2182902100 1.3071799380 0.7547006810  0 0 0
Zn 1.2182902100 6.5358996490 0.7547006810  0 0 0
Zn 1.2182902100 0.0000000010 3.0188027470  0 0 0
Zn 1.2182902100 5.2287197120 3.0188027470  0 0 0
Zn 1.2242780073 -1.3066866125 5.8782377171  1 1 1
Zn 1.2218035296 3.9238915512 5.8825580349  1 1 1
Zn 1.2177339918 -2.6134420396 8.5760371498  1 1 1
Zn 1.2179487993 2.6175017744 8.6019132757  1 1 1
Zn 1.2182902100 3.9215397940 0.7547006810  0 0 0
Zn 1.2182902100 9.1502595050 0.7547006810  0 0 0
Zn 1.2182902100 2.6143598570 3.0188027470  0 0 0
Zn 1.2182902100 7.8430795680 3.0188027470  0 0 0
Zn 1.2239408425 1.3095913116 5.8980486596  1 1 1
Zn 1.2214435067 6.5371876479 5.8646498975  1 1 1
Zn 1.2191771808 -0.0008738902 8.6024993023  1 1 1
Zn 1.2176361093 5.2331902351 8.5759711344  1 1 1
Zn 6.0914510490 1.3071799380 0.7547006810  0 0 0
Zn 6.0914510490 6.5358996490 0.7547006810  0 0 0
Zn 6.0914510490 0.0000000010 3.0188027470  0 0 0
Zn 6.0914510490 5.2287197120 3.0188027470  0 0 0
Zn 6.0992718579 -1.3131040578 5.6494270462  1 1 1
Zn 6.0977743409 3.9298890304 5.6503907934  1 1 1
Zn 6.0943375249 -2.6108084854 8.2683336096  1 1 1
Zn 6.0906404746 2.6164310187 8.2160383901  1 1 1
Zn 6.0914510490 3.9215397940 0.7547006810  0 0 0
Zn 6.0914510490 9.1502595050 0.7547006810  0 0 0
Zn 6.0914510490 2.6143598570 3.0188027470  0 0 0
Zn 6.0914510490 7.8430795680 3.0188027470  0 0 0
Zn 6.0984638399 1.3097894145 5.6384100708  1 1 1
Zn 6.0987418193 6.5357936840 5.6659522631  1 1 1
Zn 6.0865462253 0.0021303995 8.2153467465  1 1 1
Zn 6.0954126699 5.2312991192 8.2701982171  1 1 1
Zn 3.6548706290 -0.0000000190 1.5094013850  0 0 0
Zn 3.6548706290 5.2287196920 1.5094013850  0 0 0
Zn 3.6548706290 -1.3071799560 3.7735034500  0 0 0
Zn 3.6548706290 3.9215397550 3.7735034500  0 0 0
Zn 3.6696491572 -2.6121079118 6.0988308716  1 1 1
Zn 3.6706476159 2.6150715623 6.1007209685  1 1 1
Zn 3.6464490171 -3.9204124250 8.5101169319  1 1 1
Zn 3.6328412653 1.3104639947 8.5220590461  1 1 1
Zn 3.6548706290 2.6143598370 1.5094013850  0 0 0
Zn 3.6548706290 7.8430795480 1.5094013850  0 0 0
Zn 3.6548706290 1.3071799000 3.7735034500  0 0 0
Zn 3.6548706290 6.5358996110 3.7735034500  0 0 0
Zn 3.6724742817 0.0016298033 6.1024152254  1 1 1
Zn 3.6678229384 5.2293451550 6.0972954145  1 1 1
Zn 3.6384339385 -1.3061625831 8.5178845527  1 1 1
Zn 3.6392043914 3.9241203203 8.5142159152  1 1 1
Zn 8.5280314680 -0.0000000190 1.5094013850  0 0 0
Zn 8.5280314680 5.2287196920 1.5094013850  0 0 0
Zn 8.5280314680 -1.3071799560 3.7735034500  0 0 0
Zn 8.5280314680 3.9215397550 3.7735034500  0 0 0
Zn 8.5267356428 -2.6132582485 6.1011264669  1 1 1
Zn 8.5267490411 2.6164413858 6.0948317360  1 1 1
Zn 8.5393716988 -3.9194852155 8.5155591064  1 1 1
Zn 8.5486956398 1.3092940724 8.4982912520  1 1 1
Zn 8.5280314680 2.6143598370 1.5094013850  0 0 0
Zn 8.5280314680 7.8430795480 1.5094013850  0 0 0
Zn 8.5280314680 1.3071799000 3.7735034500  0 0 0
Zn 8.5280314680 6.5358996110 3.7735034500  0 0 0
Zn 8.5300864026 0.0011489297 6.0925468585  1 1 1
Zn 8.5253733942 5.2299535687 6.1011913939  1 1 1
Zn 8.5396579033 -1.3031500759 8.5085013424  1 1 1
Zn 8.5422040432 3.9218301906 8.5126867333  1 1 1
C 3.3801775974 0.5597356672 16.6579398439  
C 4.2027985774 0.6726997175 15.4970250059  
C 4.5081755629 1.9468826435 14.9691354335  
C 4.7377241079 -0.4616592985 14.8536414743  
C 5.5309615585 -0.3367983302 13.7207091079  
C 5.2933311818 2.0745129326 13.8329450876  
C 5.8192142902 0.9368292127 13.1797136690  
N 2.6906633852 0.5189774113 17.6075666323  
N 6.6327309073 1.0753445753 12.0737280708  
H 6.7713592438 0.2679005415 11.4643380033  
H 6.5961193691 1.9615328332 11.5698918064  
H 4.1057329075 2.8428916823 15.4485644879  
H 4.5128859352 -1.4534701203 15.2541561667  
H 5.9288810024 -1.2348000761 13.2362701036  
H 5.5201496993 3.0717852204 13.4349704553  

K_POINTS automatic 
  2 2 1 0 0 00 0 0  

