&CONTROL
  calculation = 'relax'    
  restart_mode ='from_scratch' 
  prefix = '04_Zn101_ABN_lean'  
  outdir = './tmp'       
  pseudo_dir = '/home/yongsang/Research/PSID_server_room/qe/[00]QE/qepseudo/SSSP_1.3.0_PBE_efficiency' 
  tprnfor = .true.        
  tstress = .true.       
  verbosity = 'high'      
  etot_conv_thr = 1.0e-5  
  forc_conv_thr =  5.0e-4 
  max_seconds   =  1.72800e+06
  nstep         = 100          
/

&SYSTEM
  ibrav = 0           
  nat = 63       
  ntyp = 4
  ecutwfc = 40.0
  ecutrho = 280.0    
  occupations = 'smearing'
  smearing = 'mv'     
  nosym = .TRUE.
  degauss = 0.02      
  vdw_corr='grimme-d3'
/

&ELECTRONS
  conv_thr = 1e-6        
  electron_maxstep = 200
  mixing_beta = 0.4   
  diagonalization = 'david'  
  startingwfc = "atomic+random"
  startingpot = "atomic"
/

&IONS
  ion_dynamics = 'bfgs' 
/

&CELL
  cell_dofree = 'all'   
/

ATOMIC_SPECIES
  Zn  65.38  Zn_pbe_v1.uspp.F.UPF  
  N      14.00674  N.pbe-n-radius_5.UPF
  C      12.01070  C.pbe-n-kjpaw_psl.1.0.0.UPF
  H       1.00794  H.pbe-rrkjus_psl.1.0.0.UPF

CELL_PARAMETERS (angstrom) 
       11.0603027344         0.0000000000         0.0000000000
       -2.4718588623        10.1610999917         0.0000000000
      -46.4560228483       -11.3012106837        22.2132348689
        
ATOMIC_POSITIONS (angstrom)  
Zn  -1.0735560000  1.0841420000  1.1977640000  0 0 0
Zn  -2.3094850000  6.1646920000  1.1977640000  0 0 0
Zn  -4.9066780872  0.1471257211  3.6141135798  1 1 1
Zn  -6.1423010651  5.2288564465  3.6126559093  1 1 1
Zn  -8.8655797339  -0.8168695914  5.7565946018  1 1 1
Zn  -10.1054724419  4.2661596694  5.7551755540  1 1 1
Zn  -1.6915200000  3.6244170000  1.1977640000  0 0 0
Zn  -2.9274500000  8.7049670000  1.1977640000  0 0 0
Zn  -5.5236902538  2.6888074114  3.6137434963  1 1 1
Zn  -6.7612573619  7.7681890257  3.6131667341  1 1 1
Zn  -9.4865928267  1.7248918318  5.7546980937  1 1 1
Zn  -10.7208036763  6.8059979326  5.7571019068  1 1 1
Zn  4.4565960000  1.0841420000  1.1977640000  0 0 0
Zn  3.2206660000  6.1646920000  1.1977640000  0 0 0
Zn  0.6250026166  0.1474996529  3.5852656974  1 1 1
Zn  -0.6106897256  5.2292631862  3.5832833503  1 1 1
Zn  -3.3070518742  -0.8102928099  5.7549872660  1 1 1
Zn  -4.5471810218  4.2737414966  5.7535530350  1 1 1
Zn  3.8386310000  3.6244170000  1.1977640000  0 0 0
Zn  2.6027020000  8.7049670000  1.1977640000  0 0 0
Zn  0.0079281341  2.6886582253  3.5852531153  1 1 1
Zn  -1.2293445922  7.7688529077  3.5835180869  1 1 1
Zn  -3.9284188733  1.7317258656  5.7533806231  1 1 1
Zn  -5.1620050332  6.8128550400  5.7553366478  1 1 1
Zn  1.6915200000  0.4114910000  0.8555450000  0 0 0
Zn  0.4555910000  5.4920410000  0.8555450000  0 0 0
Zn  -2.3478053059  -0.5715020769  2.9361009300  1 1 1
Zn  -3.5829464133  4.5096371885  2.9359331352  1 1 1
Zn  -6.3765819190  -1.5556890371  5.0591806356  1 1 1
Zn  -7.6146615989  3.5275022921  5.0605505642  1 1 1
Zn  1.0735560000  2.9517660000  0.8555450000  0 0 0
Zn  -0.1623740000  8.0323160000  0.8555450000  0 0 0
Zn  -2.9651249710  1.9692890463  2.9349715655  1 1 1
Zn  -4.2014684318  7.0491858990  2.9368829071  1 1 1
Zn  -6.9957071611  0.9857501580  5.0608485564  1 1 1
Zn  -8.2312147364  6.0665911600  5.0586760082  1 1 1
Zn  7.2216720000  0.4114910000  0.8555450000  0 0 0
Zn  5.9857420000  5.4920410000  0.8555450000  0 0 0
Zn  3.1865781527  -0.5705867949  2.9323880782  1 1 1
Zn  1.9516959296  4.5107758805  2.9315330046  1 1 1
Zn  -0.8168797018  -1.5479299112  5.0621196410  1 1 1
Zn  -2.0555247426  3.5342674893  5.0635352833  1 1 1
Zn  6.6037070000  2.9517660000  0.8555450000  0 0 0
Zn  5.3677780000  8.0323160000  0.8555450000  0 0 0
Zn  2.5693538158  1.9698122885  2.9312239646  1 1 1
Zn  1.3330186590  7.0505979836  2.9326462348  1 1 1
Zn  -1.4359481542  0.9932339489  5.0634602956  1 1 1
Zn  -2.6721397881  6.0734755981  5.0619953043  1 1 1
C       -9.0920153004      4.8104273081      9.3416913513                 
C       -7.9172643359      4.0062775580      9.3266749958                 
C       -8.0076514866      2.6007089472      9.3681234429                 
C       -6.6400316616      4.5988093248      9.2701755182                 
C       -6.8650581698      1.8166682715      9.3538626198                 
C       -5.4961998075      3.8165798271      9.2557258591                 
C       -5.5839018912      2.4078490648      9.2973773143                 
N      -10.0553396686      5.4709572193      9.3545290992                 
N       -4.4545044674      1.6340850438      9.2837479778                 
H       -3.5365739256      2.0514934040      9.2450482209                 
H       -4.5116819565      0.6269812193      9.3148812636                 
H       -6.5547920543      5.6849215099      9.2385878535                 
H       -8.9889261107      2.1285987724      9.4129198154                 
H       -4.5152489345      4.2934912562      9.2128091524                 
H       -6.9548836891      0.7293097052      9.3875301748    

K_POINTS automatic 
  3 3 1  0 0 0  

