&CONTROL
  calculation = 'relax'    
  restart_mode ='restart' 
  prefix = 'Zn002_4x4x4_relax_ecutrho250_ecutwfc25'  
  outdir = './tmp'       
  pseudo_dir = '/home/ys/qepseudo/SSSP_1.3.0_PBE_efficiency' 
  tprnfor = .true.        
  tstress = .true.       
  verbosity = 'high'      
  etot_conv_thr = 1.0e-5  
  forc_conv_thr =  5.0e-4 
  max_seconds   =  1.72800e+05 
  nstep         = 100          
/

&SYSTEM
  ibrav = 0           
  nat = 64            
  ntyp = 1            
  ecutwfc = 30.0     
  ecutrho = 120.0    
  occupations = 'smearing'
  smearing = 'mv'     
  nosym = .TRUE.
  degauss = 0.02      
/

&ELECTRONS
  conv_thr = 7.35e-7        
  electron_maxstep = 200
  mixing_beta = 0.7   
  diagonalization = 'david'  
  startingwfc = "atomic+random"
  startingpot = "atomic"
/

&IONS
  ion_dynamics = 'bfgs' 
/

&CELL
  cell_dofree = 'all'   
/

ATOMIC_SPECIES
  Zn  65.38  Zn_pbe_v1.uspp.F.UPF  

CELL_PARAMETERS (angstrom) 
       10.4574394226         0.0000000000         0.0000000000
       -5.2287197113         9.0564081985         0.0000000000
        0.0000000000         0.0000000000        23.7463226318

ATOMIC_POSITIONS (angstrom)  
Zn  -0.000000013  1.509401374  1.218290210  0 0 0
Zn  5.228719698  1.509401374  1.218290210  0 0 0
Zn  -0.000001506  1.514230835  6.241818332  1 1 1
Zn  5.228718205  1.514230835  6.241818332  1 1 1
Zn  -1.307179941  3.773503424  1.218290210  0 0 0
Zn  3.921539770  3.773503424  1.218290210  0 0 0
Zn  -1.307181519  3.778969345  6.242226709  1 1 1
Zn  3.921538193  3.778969345  6.242226709  1 1 1
Zn  -2.614359869  6.037605473  1.218290210  0 0 0
Zn  2.614359842  6.037605473  1.218290210  0 0 0
Zn  -2.614359601  6.042713419  6.242642998  1 1 1
Zn  2.614360110  6.042713419  6.242642998  1 1 1
Zn  -3.921539797  8.301707523  1.218290210  0 0 0
Zn  1.307179914  8.301707523  1.218290210  0 0 0
Zn  -3.921538975  8.306236002  6.242406281  1 1 1
Zn  1.307180737  8.306236002  6.242406281  1 1 1
Zn  2.614359843  1.509401374  1.218290210  0 0 0
Zn  7.843079554  1.509401374  1.218290210  0 0 0
Zn  2.614362679  1.514231613  6.241820856  1 1 1
Zn  7.843082390  1.514231613  6.241820856  1 1 1
Zn  1.307179915  3.773503424  1.218290210  0 0 0
Zn  6.535899626  3.773503424  1.218290210  0 0 0
Zn  1.307182145  3.778970945  6.242224424  1 1 1
Zn  6.535901856  3.778970945  6.242224424  1 1 1
Zn  -0.000000013  6.037605473  1.218290210  0 0 0
Zn  5.228719698  6.037605473  1.218290210  0 0 0
Zn  0.000000853  6.042714653  6.242640148  1 1 1
Zn  5.228720564  6.042714653  6.242640148  1 1 1
Zn  -1.307179941  8.301707523  1.218290210  0 0 0
Zn  3.921539770  8.301707523  1.218290210  0 0 0
Zn  -1.307180639  8.306237227  6.242405939  1 1 1
Zn  3.921539072  8.306237227  6.242405939  1 1 1
Zn  1.307179941  0.754700676  3.654870629  0 0 0
Zn  6.535899652  0.754700676  3.654870629  0 0 0
Zn  1.307179376  0.744219139  8.828662138  1 1 1
Zn  6.535899087  0.744219139  8.828662138  1 1 1
Zn  0.000000013  3.018802725  3.654870629  0 0 0
Zn  5.228719724  3.018802725  3.654870629  0 0 0
Zn  0.000000584  3.008923419  8.828880280  1 1 1
Zn  5.228720295  3.008923419  8.828880280  1 1 1
Zn  -1.307179915  5.282904775  3.654870629  0 0 0
Zn  3.921539796  5.282904775  3.654870629  0 0 0
Zn  -1.307178445  5.273037055  8.826009774  1 1 1
Zn  3.921541266  5.273037055  8.826009774  1 1 1
Zn  -2.614359843  7.547006825  3.654870629  0 0 0
Zn  2.614359868  7.547006825  3.654870629  0 0 0
Zn  -2.614359553  7.536541109  8.825803328  1 1 1
Zn  2.614360158  7.536541109  8.825803328  1 1 1
Zn  3.921539797  0.754700676  3.654870629  0 0 0
Zn  9.150259508  0.754700676  3.654870629  0 0 0
Zn  3.921541018  0.744218819  8.828661602  1 1 1
Zn  9.150260729  0.744218819  8.828661602  1 1 1
Zn  2.614359869  3.018802725  3.654870629  0 0 0
Zn  7.843079580  3.018802725  3.654870629  0 0 0
Zn  2.614360210  3.008922784  8.828884504  1 1 1
Zn  7.843079921  3.008922784  8.828884504  1 1 1
Zn  1.307179941  5.282904775  3.654870629  0 0 0
Zn  6.535899652  5.282904775  3.654870629  0 0 0
Zn  1.307179291  5.273036572  8.826009188  1 1 1
Zn  6.535899002  5.273036572  8.826009188  1 1 1
Zn  0.000000013  7.547006825  3.654870629  0 0 0
Zn  5.228719724  7.547006825  3.654870629  0 0 0
Zn  0.000000547  7.536540100  8.825802725  1 1 1
Zn  5.228720258  7.536540100  8.825802725  1 1 1

K_POINTS automatic 
  3 3 1  0 0 0  

