&CONTROL
  calculation = 'relax'    
  restart_mode ='restart' 
  prefix = 'Zn100_optimized_topsite_H2O'  
  outdir = './tmp'       
  pseudo_dir = '/home/ys/qepseudo/SSSP_1.3.0_PBE_efficiency' 
  tprnfor = .true.        
  tstress = .true.       
  verbosity = 'high'      
  etot_conv_thr = 1.0e-5  
  forc_conv_thr =  5.0e-4 
  max_seconds   =  1.72800e+05 
  nstep         = 100          
/

&SYSTEM
  ibrav = 0           
  nat = 67            
  ntyp = 3            
  ecutwfc = 30.0     
  ecutrho = 120.0    
  occupations = 'smearing'
  smearing = 'mv'     
  nosym = .TRUE.
  degauss = 0.02      
/

&ELECTRONS
  conv_thr = 7.35e-7        
  electron_maxstep = 200
  mixing_beta = 0.7   
  diagonalization = 'david'  
  startingwfc = "atomic+random"
  startingpot = "atomic"
/

&IONS
  ion_dynamics = 'bfgs' 
/

&CELL
  cell_dofree = 'all'   
/

ATOMIC_SPECIES
  Zn  65.38  Zn_pbe_v1.uspp.F.UPF  
  O  16.000   O.pbe-n-kjpaw_psl.0.1.UPF  
  H  1.008   H.pbe-rrkjus_psl.1.0.0.UPF  

CELL_PARAMETERS (angstrom) 
        9.7463216782         0.0000000000         0.0000000000
        0.0000000000        10.4574394226         0.0000000000
        0.0000000000       -13.3116235733        23.0564083602

ATOMIC_POSITIONS (angstrom)  
Zn 1.2182902100 1.3071799380 0.7547006810  0 0 0
Zn 1.2182902100 6.5358996490 0.7547006810  0 0 0
Zn 1.2182902100 0.0000000010 3.0188027470  0 0 0
Zn 1.2182902100 5.2287197120 3.0188027470  0 0 0
Zn 1.1958122009 -1.3086176533 5.5760099947  1 1 1
Zn 1.2021389824 3.9206217541 5.5808695307  1 1 1
Zn 1.2500871774 -2.6168036730 8.1452515547  1 1 1
Zn 1.2479810893 2.6139396863 8.1413213683  1 1 1
Zn 1.2182902100 3.9215397940 0.7547006810  0 0 0
Zn 1.2182902100 9.1502595050 0.7547006810  0 0 0
Zn 1.2182902100 2.6143598570 3.0188027470  0 0 0
Zn 1.2182902100 7.8430795680 3.0188027470  0 0 0
Zn 1.2000241487 1.3056384741 5.5787941563  1 1 1
Zn 1.1971329764 6.5343014450 5.5741303777  1 1 1
Zn 1.2511844513 0.0028832370 8.1435137691  1 1 1
Zn 1.2458854799 5.2220738242 8.1417615047  1 1 1
Zn 6.0914510490 1.3071799380 0.7547006810  0 0 0
Zn 6.0914510490 6.5358996490 0.7547006810  0 0 0
Zn 6.0914510490 0.0000000010 3.0188027470  0 0 0
Zn 6.0914510490 5.2287197120 3.0188027470  0 0 0
Zn 6.0588661238 -1.3057252308 6.1737620709  1 1 1
Zn 6.0659554111 3.9157237442 6.1367235860  1 1 1
Zn 6.1360598217 -2.6174766377 8.8604561536  1 1 1
Zn 6.1261746843 2.6183638388 9.1352792627  1 1 1
Zn 6.0914510490 3.9215397940 0.7547006810  0 0 0
Zn 6.0914510490 9.1502595050 0.7547006810  0 0 0
Zn 6.0914510490 2.6143598570 3.0188027470  0 0 0
Zn 6.0914510490 7.8430795680 3.0188027470  0 0 0
Zn 6.0644098560 1.3201114130 6.2039198558  1 1 1
Zn 6.0609844624 6.5292930308 6.1650580037  1 1 1
Zn 6.1343884399 -0.0100297548 8.8361344003  1 1 1
Zn 6.1275638265 5.2312252213 8.8802150655  1 1 1
Zn 3.6548706290 -0.0000000190 1.5094013850  0 0 0
Zn 3.6548706290 5.2287196920 1.5094013850  0 0 0
Zn 3.6548706290 -1.3071799560 3.7735034500  0 0 0
Zn 3.6548706290 3.9215397550 3.7735034500  0 0 0
Zn 3.6154018310 -2.6158034208 6.1053760094  1 1 1
Zn 3.6224264294 2.6131236742 6.1034473242  1 1 1
Zn 3.7167904138 -3.9225258110 8.5316628184  1 1 1
Zn 3.7482078869 1.3105747717 8.5303147276  1 1 1
Zn 3.6548706290 2.6143598370 1.5094013850  0 0 0
Zn 3.6548706290 7.8430795480 1.5094013850  0 0 0
Zn 3.6548706290 1.3071799000 3.7735034500  0 0 0
Zn 3.6548706290 6.5358996110 3.7735034500  0 0 0
Zn 3.6115504527 0.0027851218 6.1120869870  1 1 1
Zn 3.6151330183 5.2257900676 6.1115347623  1 1 1
Zn 3.7106437398 -1.3072498993 8.5319597742  1 1 1
Zn 3.7446911719 3.9152581539 8.5358872115  1 1 1
Zn 8.5280314680 -0.0000000190 1.5094013850  0 0 0
Zn 8.5280314680 5.2287196920 1.5094013850  0 0 0
Zn 8.5280314680 -1.3071799560 3.7735034500  0 0 0
Zn 8.5280314680 3.9215397550 3.7735034500  0 0 0
Zn 8.5021146964 -2.6155157033 6.1075447065  1 1 1
Zn 8.5115309122 2.6137418455 6.0993662318  1 1 1
Zn 8.5466797814 -3.9233220439 8.5293156178  1 1 1
Zn 8.5161436902 1.3107508546 8.5122421355  1 1 1
Zn 8.5280314680 2.6143598370 1.5094013850  0 0 0
Zn 8.5280314680 7.8430795480 1.5094013850  0 0 0
Zn 8.5280314680 1.3071799000 3.7735034500  0 0 0
Zn 8.5280314680 6.5358996110 3.7735034500  0 0 0
Zn 8.5108789248 0.0013830293 6.1088663372  1 1 1
Zn 8.5143118661 5.2253327979 6.1128577528  1 1 1
Zn 8.5547101891 -1.3071211095 8.5263202035  1 1 1
Zn 8.5032521702 3.9137955379 8.5214462166  1 1 1
O 6.2198230362 2.4915856971 11.5568330430  1 1 1
H 7.1694713093 2.3432847604 11.7582023996  1 1 1
H 5.7835429185 1.6434366589 11.7902624852  1 1 1

K_POINTS automatic 
  2 2 1 0 0 0  

