&CONTROL
  calculation = 'relax'    
  restart_mode ='from_scratch' 
  prefix = '05_Zn002_ABN_topsite_tilted_edgeon'  
  outdir = './tmp'       
  pseudo_dir = '/home/ys/qepseudo/SSSP_1.3.0_PBE_efficiency' 
  tprnfor = .true.        
  tstress = .true.       
  verbosity = 'high'      
  etot_conv_thr = 1.0e-5  
  forc_conv_thr =  5.0e-4 
  max_seconds   =  1.72800e+06
  nstep         = 500         
/

&SYSTEM
  ibrav = 0           
  nat = 63            
  ntyp = 4            
  ecutwfc = 40.0
  ecutrho = 280.0    
  occupations = 'smearing'
  smearing = 'mv'     
  nosym = .TRUE.
  degauss = 0.02      
  vdw_corr='grimme-d3'
/

&ELECTRONS
  conv_thr = 1e-6        
  electron_maxstep = 200
  mixing_beta = 0.4   
  diagonalization = 'david'  
  startingwfc = "atomic+random"
  startingpot = "atomic"
/

&IONS
  ion_dynamics = 'bfgs' 
/

&CELL
  cell_dofree = 'all'   
/

ATOMIC_SPECIES
  Zn  65.38  Zn_pbe_v1.uspp.F.UPF  
  N      14.00674  N.pbe-n-radius_5.UPF
  C      12.01070  C.pbe-n-kjpaw_psl.1.0.0.UPF
  H       1.00794  H.pbe-rrkjus_psl.1.0.0.UPF

CELL_PARAMETERS (angstrom) 
       10.4574394226         0.0000000000         0.0000000000
       -5.2287197113         9.0564081985         0.0000000000
        0.0000000000         0.0000000000        23.7463226318

ATOMIC_POSITIONS (angstrom)
Zn               0.0000000000        1.5094010000        1.2182900000    0   0   0
Zn               5.2287200000        1.5094010000        1.2182900000    0   0   0
Zn              -0.0001275309        1.5134995780        6.1690310747
Zn               5.2288180282        1.5140580317        6.2058820475
Zn              -1.3071800000        3.7735030000        1.2182900000    0   0   0
Zn               3.9215400000        3.7735030000        1.2182900000    0   0   0
Zn              -1.3059765579        3.7756251799        6.1655074821
Zn               3.9269454308        3.7775713665        6.0339495389
Zn              -2.6143600000        6.0376050000        1.2182900000    0   0   0
Zn               2.6143600000        6.0376050000        1.2182900000    0   0   0
Zn              -2.6119633336        6.0377506374        6.1636051630
Zn               2.6156840408        6.0382475932        6.1967764113
Zn              -3.9215400000        8.3017080000        1.2182900000    0   0   0
Zn               1.3071800000        8.3017080000        1.2182900000    0   0   0
Zn              -3.9201932195        8.3026821786        6.1630606699
Zn               1.3064570807        8.3053242827        6.1667703500
Zn               2.6143600000        1.5094010000        1.2182900000    0   0   0
Zn               7.8430800000        1.5094010000        1.2182900000    0   0   0
Zn               2.6163114680        1.5120130089        6.1584031843
Zn               7.8408457004        1.5124862765        6.1697746715
Zn               1.3071800000        3.7735030000        1.2182900000    0   0   0
Zn               6.5359000000        3.7735030000        1.2182900000    0   0   0
Zn               1.3106032559        3.7748377377        6.1915361720
Zn               6.5362968431        3.7734724778        6.1917066177
Zn               0.0000000000        6.0376050000        1.2182900000    0   0   0
Zn               5.2287200000        6.0376050000        1.2182900000    0   0   0
Zn               0.0024581370        6.0394697391        6.1706748267
Zn               5.2282013591        6.0376127484        6.1921211728
Zn              -1.3071800000        8.3017080000        1.2182900000    0   0   0
Zn               3.9215400000        8.3017080000        1.2182900000    0   0   0
Zn              -1.3035932285        8.3054280148        6.1684085140
Zn               3.9195545897        8.3041419561        6.1645557789
Zn               1.3068643915        0.7561683901        3.7073911683
Zn               6.5357190763        0.7565831382        3.6932435892
Zn               0.0000578554        3.0218860008        3.6963421802
Zn               5.2348526483        3.0181727503        3.6795629321
Zn              -1.3068985920        5.2841351442        3.6919989202
Zn               3.9217003297        5.2915427662        3.6802264613
Zn              -2.6147081051        7.5484722137        3.6976340945
Zn               2.6139383209        7.5476299037        3.6972141499
Zn               3.9236443665        0.7565339415        3.6990799213
Zn               9.1491930458        0.7566815588        3.6904555347
Zn               2.6096043143        3.0198625299        3.6836346339
Zn               7.8420274463        3.0212134886        3.6940061457
Zn               1.3089235042        5.2849454248        3.6965972828
Zn               6.5346725629        5.2839421155        3.6951305805
Zn               0.0013145373        7.5492856047        3.6960723501
Zn               5.2283807872        7.5466133987        3.7000786975
C                4.6510147286        5.4321108908       14.4996403772
C                4.3970788437        4.8472258664       13.2255282359
C                4.8042841591        5.4940494277       12.0414795314
C                3.7167927316        3.6171296159       13.1259191735
C                4.5328836637        4.9360125620       10.8019006298
C                3.4448322337        3.0578540707       11.8872040844
C                3.8372113278        3.7116802215       10.7003430608
N                4.8519763179        5.9135947759       15.5446387722
N                3.5873582981        3.1498798197        9.4672667607
H                2.8695408910        2.4367865586        9.4032547701
H                3.6257413748        3.7602267750        8.6555254069
H                3.3960067699        3.1075506751       14.0340627483
H                5.3302882358        6.4467068698       12.1056917538
H                2.9191856288        2.1024518189       11.8293391051
H                4.8559255621        5.4483456502        9.8925626534

K_POINTS automatic 
  3 3 1  0 0 0  

