&CONTROL
  calculation = 'relax'    
  restart_mode ='from_scratch' 
  prefix = '04_Zn101_ABN_lean'  
  outdir = './tmp'       
  pseudo_dir = '/home/yongsang/Research/PSID_server_room/qe/[00]QE/qepseudo/SSSP_1.3.0_PBE_efficiency' 
  tprnfor = .true.        
  tstress = .true.       
  verbosity = 'high'      
  etot_conv_thr = 1.0e-5  
  forc_conv_thr =  5.0e-4 
  max_seconds   =  1.72800e+06
  nstep         = 500          
/

&SYSTEM
  ibrav = 0           
  nat = 63       
  ntyp = 4
  ecutwfc = 40.0
  ecutrho = 280.0    
  occupations = 'smearing'
  smearing = 'mv'     
  nosym = .TRUE.
  degauss = 0.02      
  vdw_corr='grimme-d3'
/

&ELECTRONS
  conv_thr = 1e-6        
  electron_maxstep = 200
  mixing_beta = 0.4   
  diagonalization = 'david'  
  startingwfc = "atomic+random"
  startingpot = "atomic"
/

&IONS
  ion_dynamics = 'bfgs' 
/

&CELL
  cell_dofree = 'all'   
/

ATOMIC_SPECIES
  Zn  65.38  Zn_pbe_v1.uspp.F.UPF  
  N      14.00674  N.pbe-n-radius_5.UPF
  C      12.01070  C.pbe-n-kjpaw_psl.1.0.0.UPF
  H       1.00794  H.pbe-rrkjus_psl.1.0.0.UPF

CELL_PARAMETERS (angstrom) 
       11.0603027344         0.0000000000         0.0000000000
       -2.4718588623        10.1610999917         0.0000000000
      -46.4560228483       -11.3012106837        22.2132348689

ATOMIC_POSITIONS (angstrom)
Zn              -1.0735560000        1.0841420000        1.1977640000    0   0   0
Zn              -2.3094850000        6.1646920000        1.1977640000    0   0   0
Zn              -4.2933346105        0.2954550912        4.2643980973
Zn              -5.5412753994        5.3838402693        4.2701339559
Zn              -8.2643567392       -0.6914472038        5.8162736598
Zn              -9.5754823063        4.3757327820        5.7573292806
Zn              -1.6915200000        3.6244170000        1.1977640000    0   0   0
Zn              -2.9274500000        8.7049670000        1.1977640000    0   0   0
Zn              -4.9146648118        2.8416082977        4.2446400459
Zn              -6.1559774508        7.9145995376        4.3129679992
Zn              -8.9227470819        1.8426518414        5.7593540157
Zn             -10.1148722072        6.9256324577        5.8613287170
Zn               4.4565960000        1.0841420000        1.1977640000    0   0   0
Zn               3.2206660000        6.1646920000        1.1977640000    0   0   0
Zn               0.3903364430        0.0981551804        3.4817006106
Zn              -0.8386757723        5.1787122687        3.4862360130
Zn              -2.1603661775       -0.5225024955        5.6021694500
Zn              -3.4221735656        4.5688180435        5.6006947665
Zn               3.8386310000        3.6244170000        1.1977640000    0   0   0
Zn               2.6027020000        8.7049670000        1.1977640000    0   0   0
Zn              -0.1831210640        2.6444338795        3.4729257321
Zn              -1.4631484917        7.7102082153        3.4837895766
Zn              -2.9476282678        1.9867136700        5.8487806168
Zn              -3.9967046841        7.1020631108        5.6280760854
Zn               1.6915200000        0.4114910000        0.8555450000    0   0   0
Zn               0.4555910000        5.4920410000        0.8555450000    0   0   0
Zn              -2.2525808418       -0.5458083769        2.8510498289
Zn              -3.4780537232        4.5321723328        2.8530256399
Zn              -6.1253492866       -1.5013114634        4.4727903446
Zn              -7.3566552179        3.5888660691        4.4555536319
Zn               1.0735560000        2.9517660000        0.8555450000    0   0   0
Zn              -0.1623740000        8.0323160000        0.8555450000    0   0   0
Zn              -2.7993085882        2.0106282555        2.9521326791
Zn              -4.1038570635        7.0776542613        2.8627779497
Zn              -6.7287046861        1.0498934121        4.4536708263
Zn              -7.9904206151        6.1180214666        4.4643652442
Zn               7.2216720000        0.4114910000        0.8555450000    0   0   0
Zn               5.9857420000        5.4920410000        0.8555450000    0   0   0
Zn               2.9794285990       -0.6247638988        2.9340078961
Zn               1.7654219075        4.4628085046        2.8914451183
Zn               0.3272452977       -1.2405752498        5.8288049749
Zn              -1.0048019131        3.7798703995        5.7998178851
Zn               6.6037070000        2.9517660000        0.8555450000    0   0   0
Zn               5.3677780000        8.0323160000        0.8555450000    0   0   0
Zn               2.3834231992        1.9178417809        2.9109579768
Zn               1.1233438635        7.0003727513        2.9267878881
Zn              -0.3718731769        1.2979753429        5.8167898537
Zn              -1.5264224730        6.3554677401        5.8397924553
C               -8.7008967174        4.8371497170        8.9497770343
C               -7.5473754365        4.0277959229        8.7495055070
C               -7.6684808305        2.6349043088        8.5885582234
C               -6.2730565539        4.6163065136        8.6739344178
C               -6.5416851713        1.8543564330        8.3530309337
C               -5.1495535935        3.8358421941        8.4454841383
C               -5.2707712767        2.4444960296        8.2846344331
N               -9.6517706096        5.5025296171        9.0834401506
N               -4.1231432056        1.6763487508        8.0006309248
H               -3.3019338009        1.9222337398        8.5509114656
H               -4.2793634969        0.6701026308        8.0263406412
H               -6.1756565073        5.6942976902        8.7800935252
H               -8.6483976879        2.1646718857        8.6571455590
H               -4.1652428066        4.3035005924        8.3909266168
H               -6.6486693199        0.7755621230        8.2204727168

K_POINTS automatic 
  3 3 1  0 0 0  

