&CONTROL
  calculation = 'scf'    
  restart_mode = 'from_scratch' 
  prefix = 'Zn002_4x4x2_primitive_14Avacumn_bridgesite_upright_cross_ABN'  
  outdir = './tmp'       
  pseudo_dir = '/home/ys/qepseudo/SSSP_1.3.0_PBE_efficiency' 
  tprnfor = .true.        
  tstress = .true.       
  verbosity = 'high'      
  max_seconds   =  1.72800e+05 
/

&SYSTEM
  ibrav = 0           
  nat = 79            
  ntyp = 4            
  ecutwfc = 50.0     
  ecutrho = 200.0    
  occupations = 'smearing'
  smearing = 'mv'     
  degauss = 0.02      
  nosym = .TRUE.
/

&ELECTRONS
  conv_thr = 7.35e-7        
  electron_maxstep = 200
  mixing_beta = 0.7   
  diagonalization = 'david'  
  startingwfc = "atomic+random"
  startingpot = "atomic"
/

&IONS
  ion_dynamics = 'bfgs' 
/

&CELL
  cell_dofree = 'all'   
/

ATOMIC_SPECIES
  Zn  65.38  Zn_pbe_v1.uspp.F.UPF  
  C  12.0107   C.pbe-n-kjpaw_psl.1.0.0.UPF  
  N  14.0067   N.pbe-n-radius_5.UPF  
  H  1.008   H.pbe-rrkjus_psl.1.0.0.UPF  

CELL_PARAMETERS (angstrom) 
       10.4574394226         0.0000000000         0.0000000000
       -5.2287197113         9.0564081985         0.0000000000
        0.0000000000         0.0000000000        23.7463226318

ATOMIC_POSITIONS (angstrom)  
Zn -0.0000000130 1.5094013740 1.2182902590
Zn 5.2287196980 1.5094013740 1.2182902590
Zn 0.0011120427 1.5098156786 6.1721139700
Zn 5.2276298567 1.5096812409 6.1878303447
Zn -1.3071799410 3.7735034240 1.2182902590
Zn 3.9215397700 3.7735034240 1.2182902590
Zn -1.3069300877 3.7744055475 6.1790147181
Zn 3.9211654507 3.7735432858 6.1841575930
Zn -2.6143598690 6.0376054730 1.2182902590
Zn 2.6143598420 6.0376054730 1.2182902590
Zn -2.6142664897 6.0378510255 6.1861027382
Zn 2.6141756116 6.0366437837 6.1776090524
Zn -3.9215397970 8.3017075230 1.2182902590
Zn 1.3071799140 8.3017075230 1.2182902590
Zn -3.9206627632 8.3013971165 6.1799331037
Zn 1.3061892394 8.3010083570 6.1815705960
Zn 2.6143598430 1.5094013740 1.2182902590
Zn 7.8430795540 1.5094013740 1.2182902590
Zn 2.6139064777 1.5091536489 6.1808539610
Zn 7.8434993133 1.5104311852 6.1795685079
Zn 1.3071799150 3.7735034240 1.2182902590
Zn 6.5358996260 3.7735034240 1.2182902590
Zn 1.3068490933 3.7733862370 6.1747897063
Zn 6.5361293872 3.7744930338 6.1877720625
Zn -0.0000000130 6.0376054730 1.2182902590
Zn 5.2287196980 6.0376054730 1.2182902590
Zn -0.0010277368 6.0371123597 6.1810339429
Zn 5.2296452053 6.0375740856 6.1834586640
Zn -1.3071799410 8.3017075230 1.2182902590
Zn 3.9215397700 8.3017075230 1.2182902590
Zn -1.3082407216 8.3010985074 6.1862800640
Zn 3.9229243575 8.3012795558 6.1747242960
Zn 1.3071799410 0.7547006760 3.6548707760
Zn 6.5358996520 0.7547006760 3.6548707760
Zn 1.3060078120 0.7514008065 8.7100641962
Zn 6.5339019203 0.7504082898 8.7090068484
Zn 0.0000000130 3.0188027250 3.6548707760
Zn 5.2287197240 3.0188027250 3.6548707760
Zn -0.0013387442 3.0141708845 8.7062285802
Zn 5.2290514138 3.0140409853 8.6787895459
Zn -1.3071799150 5.2829047750 3.6548707760
Zn 3.9215397960 5.2829047750 3.6548707760
Zn -1.3082755517 5.2785207962 8.7092457642
Zn 3.9217895034 5.2836028855 8.6756594635
Zn -2.6143598430 7.5470068250 3.6548707760
Zn 2.6143598680 7.5470068250 3.6548707760
Zn -2.6162435750 7.5445318317 8.7123030003
Zn 2.6134832674 7.5467094242 8.7087477773
Zn 3.9215397970 0.7547006760 3.6548707760
Zn 9.1502595080 0.7547006760 3.6548707760
Zn 3.9189804483 0.7495529162 8.7129730522
Zn 9.1498475769 0.7529432580 8.7054117713
Zn 2.6143598690 3.0188027250 3.6548707760
Zn 7.8430795800 3.0188027250 3.6548707760
Zn 2.6102360142 3.0106298521 8.6840534100
Zn 7.8427811355 3.0161399047 8.7092865789
Zn 1.3071799410 5.2829047750 3.6548707760
Zn 6.5358996520 5.2829047750 3.6548707760
Zn 1.3037624626 5.2805437043 8.6766693717
Zn 6.5359948003 5.2821713515 8.7137650469
Zn 0.0000000130 7.5470068250 3.6548707760
Zn 5.2287197240 7.5470068250 3.6548707760
Zn -0.0020278312 7.5435029303 8.7097888825
Zn 5.2277981481 7.5468307644 8.7106047872
C 3.2644277216 4.5083205978 17.7403576633
C 3.2657492812 4.3964014589 16.3187916006
C 4.3272940175 3.7520744543 15.6511111485
C 2.2012057910 4.9138030127 15.5516047375
C 2.1923832673 4.7894998577 14.1723394907
C 4.3202178273 3.6291630755 14.2713239723
C 3.2541810921 4.1436686341 13.5007126612
N 3.2647895793 4.5916638110 18.9117559383
N 3.2193200446 3.9634354586 12.1365275287
H 2.5905987028 4.5445986149 11.5821990586
H 4.0853834464 3.7239060529 11.6550919374
H 5.1586865981 3.3441645210 16.2325728816
H 1.3680853609 5.4087677438 16.0586543082
H 1.3507730612 5.1895872080 13.5967487201
H 5.1527628696 3.1245653474 13.7690121306

K_POINTS automatic 
  3 3 1  0 0 0  

