&CONTROL
  calculation = 'scf'    
  restart_mode = 'from_scratch' 
  prefix = 'Zn002_2x2x4_scf'  
  outdir = './tmp'       
  pseudo_dir = '/home/ys/qepseudo/SSSP_1.3.0_PBE_efficiency' 
  tprnfor = .true.        
  tstress = .true.       
  verbosity = 'high'      
  max_seconds   =  1.72800e+05 
/

&SYSTEM
  ibrav = 0           
  nat = 32            
  ntyp = 1            
  ecutwfc = 50.0     
  ecutrho = 200.0    
  occupations = 'smearing'
  smearing = 'mv'     
  degauss = 0.02      
  nosym = .TRUE.
/

&ELECTRONS
  conv_thr = 7.35e-7        
  electron_maxstep = 200
  mixing_beta = 0.7   
  diagonalization = 'david'  
  startingwfc = "atomic+random"
  startingpot = "atomic"
/

&IONS
  ion_dynamics = 'bfgs' 
/

&CELL
  cell_dofree = 'all'   
/

ATOMIC_SPECIES
  Zn  65.38  Zn_pbe_v1.uspp.F.UPF  

CELL_PARAMETERS (angstrom) 
   11.0603027344         0.0000000000         0.0000000000
   -1.2359294312         5.0805499959         0.0000000000
  -46.45602384          -11.30121092          22.2132353415

ATOMIC_POSITIONS (angstrom)  
Zn -1.0735556570 1.0841422360 1.1977635690
Zn -5.3677776710 0.0395003420 3.2510724040
Zn -9.6997933970 -1.0142840196 5.6513536463
Zn -13.7072340587 -1.9892449478 7.7599039545
Zn -1.6915203730 3.6244172340 1.1977635690
Zn -5.9857423860 2.5797753400 3.2510724040
Zn -10.3177574621 1.5259913542 5.6513525286
Zn -14.3251982172 0.5510303851 7.7599035579
Zn 4.4565957100 1.0841422360 1.1977635690
Zn 0.1623736960 0.0395003420 3.2510724040
Zn -4.1693980069 -1.0142366875 5.6517554437
Zn -8.1765603972 -1.9891311354 7.7583865129
Zn 3.8386309950 3.6244172340 1.1977635690
Zn -0.4555910190 2.5797753400 3.2510724040
Zn -4.7873633254 1.5260381297 5.6517551910
Zn -8.7945254544 0.5511440112 7.7583855680
Zn 1.6915202950 0.4114908680 0.8555452660
Zn -2.6027017190 -0.6331510260 2.9088541010
Zn -6.9771372861 -1.6972539748 5.1015389240
Zn -11.1372612207 -2.7092745210 7.3681532079
Zn 1.0735555790 2.9517658660 0.8555452660
Zn -3.2206664340 1.9071239720 2.9088541010
Zn -7.5951019832 0.8430210325 5.1015384393
Zn -11.7552265846 -0.1689994377 7.3681532979
Zn 7.2216716620 0.4114908680 0.8555452660
Zn 2.9274496480 -0.6331510260 2.9088541010
Zn -1.4476190976 -1.6974004079 5.1035951865
Zn -5.6073907655 -2.7093458332 7.3647087659
Zn 6.6037069470 2.9517658660 0.8555452660
Zn 2.3094849330 1.9071239720 2.9088541010
Zn -2.0655825929 0.8428752633 5.1035941222
Zn -6.2253546955 -0.1690704385 7.3647083007

K_POINTS automatic 
  3 3 1  0 0 0  

