&CONTROL
  calculation = 'relax'    
  restart_mode ='from_scratch' 
  prefix = 'Zn101_3layer_aniline_relax'  
  outdir = './tmp'       
  pseudo_dir = '/home/ys/qepseudo/SSSP_1.3.0_PBE_efficiency' 
  tprnfor = .true.        
  tstress = .true.       
  verbosity = 'high'      
  etot_conv_thr = 5.0e-5  
  forc_conv_thr =  1.0e-3
  max_seconds   =  1.72800e+06
  nstep         = 300          
/

&SYSTEM
  ibrav = 0           
  nat = 62            
  ntyp = 4            
  ecutwfc = 40.0
  ecutrho = 280.0    
  occupations = 'smearing'
  smearing = 'mv'     
  nosym = .TRUE.
  degauss = 0.02      
  vdw_corr='grimme-d3'
/

&ELECTRONS
  conv_thr = 1e-6 
  electron_maxstep = 200
  mixing_beta = 0.4   
  diagonalization = 'david'  
  startingwfc = "atomic+random"
  startingpot = "atomic"
/

&IONS
  ion_dynamics = 'bfgs' 
/

&CELL
  cell_dofree = 'all'   
/

ATOMIC_SPECIES
  Zn  65.38  Zn_pbe_v1.uspp.F.UPF  
  N      14.00674  N.pbe-n-radius_5.UPF
  C      12.01070  C.pbe-n-kjpaw_psl.1.0.0.UPF
  H       1.00794  H.pbe-rrkjus_psl.1.0.0.UPF


CELL_PARAMETERS (angstrom) 
       11.0603027344         0.0000000000         0.0000000000
       -2.4718588623        10.1610999917         0.0000000000
      -46.4560228483       -11.3012106837        22.2132348689
        
ATOMIC_POSITIONS (angstrom)
Zn              -1.0735560000        1.0841420000        1.1977640000    0   0   0
Zn              -2.3094850000        6.1646920000        1.1977640000    0   0   0
Zn              -5.0029762222        0.1654232223        3.8257647840
Zn              -6.1823539671        5.2380759237        3.9074095023
Zn              -9.1291257668       -0.8311386676        5.8336074107
Zn             -10.3867383836        4.2351256865        5.8466121287
Zn              -1.6915200000        3.6244170000        1.1977640000    0   0   0
Zn              -2.9274500000        8.7049670000        1.1977640000    0   0   0
Zn              -5.6066225483        2.7037836693        3.8900024402
Zn              -6.8273252689        7.7724133137        3.8149154093
Zn              -9.7930029660        1.6850457729        5.8050718669
Zn             -10.9449089717        6.7916730097        5.8501881645
Zn               4.4565960000        1.0841420000        1.1977640000    0   0   0
Zn               3.2206660000        6.1646920000        1.1977640000    0   0   0
Zn               0.3921122219        0.1152464563        3.4348680709
Zn              -0.8663387348        5.1994441354        3.4090147845
Zn              -3.1838695753       -0.7575558998        5.6668310870
Zn              -4.3261534561        4.3642531085        5.6901387374
Zn               3.8386310000        3.6244170000        1.1977640000    0   0   0
Zn               2.6027020000        8.7049670000        1.1977640000    0   0   0
Zn              -0.2353373093        2.6490279084        3.4317251183
Zn              -1.4485717679        7.7507004474        3.4492630815
Zn              -3.7693410145        1.8227287875        5.6729766176
Zn              -4.9647519861        6.8970812385        5.6704697877
Zn               1.6915200000        0.4114910000        0.8555450000    0   0   0
Zn               0.4555910000        5.4920410000        0.8555450000    0   0   0
Zn              -2.3912711774       -0.5712451522        2.9414675967
Zn              -3.6387661440        4.5034292663        2.9273357364
Zn              -6.6164395974       -1.5921233575        5.1600611392
Zn              -7.9119454772        3.5011759153        5.1331712295
Zn               1.0735560000        2.9517660000        0.8555450000    0   0   0
Zn              -0.1623740000        8.0323160000        0.8555450000    0   0   0
Zn              -3.0245520844        1.9634394331        2.9215695423
Zn              -4.2501073139        7.0419297625        2.9267842301
Zn              -7.2660475696        0.9612393219        5.1763064360
Zn              -8.5329294657        6.0248474119        4.9877714248
Zn               7.2216720000        0.4114910000        0.8555450000    0   0   0
Zn               5.9857420000        5.4920410000        0.8555450000    0   0   0
Zn               3.1360930958       -0.5660908018        2.9886562095
Zn               1.8165972535        4.4766063479        2.9214334901
Zn              -0.6074211968       -1.4631236676        5.4808412469
Zn              -1.8385332077        3.6127619971        5.4858908979
Zn               6.6037070000        2.9517660000        0.8555450000    0   0   0
Zn               5.3677780000        8.0323160000        0.8555450000    0   0   0
Zn               2.5007680727        1.9525891923        2.9504433647
Zn               1.2173863797        7.0662229125        2.9466295734
Zn              -1.2877447578        1.0608854867        5.4175286188
Zn              -2.4199257132        6.1751553883        5.4897625297
C               -5.9588352723        4.8561754835        8.6508420059
N               -8.0168283683        6.1196849187        8.4159745883
C               -5.3068468590        3.6321542275        8.7773356672
C               -7.3655142914        4.9145065387        8.5925839294
H               -5.3925029041        5.7837645908        8.6793207987
H               -7.4779650157        6.8753600722        7.9975837126
C               -6.0340476090        2.4414887894        8.8471042764
C               -8.0866905507        3.7197156567        8.7687796479
C               -7.4268201545        2.5016025287        8.8843616209
H               -4.2231717496        3.6262093769        8.8565311363
H               -8.9622648258        6.0723666364        8.0327941760
H               -5.5215277193        1.4907299649        8.9460654572
H               -9.1749670998        3.7555770066        8.7814068687
H               -8.0144094451        1.5886811363        8.9612965573

K_POINTS automatic 
  3 3 1  0 0 0  

