&CONTROL
  calculation = 'relax'    
  restart_mode = 'from_scratch'
  prefix = 'Zn002_3layer_ABN_relax'  
  outdir = './tmp'       
  pseudo_dir = '/home/ys/qepseudo/SSSP_1.3.0_PBE_efficiency' 
  tprnfor = .true.        
  tstress = .true.       
  verbosity = 'high'      
  etot_conv_thr = 1.0e-5  
  forc_conv_thr =  5.0e-4 
  max_seconds   =  1.72800e+06 
  nstep         = 500      
/

&SYSTEM
  ibrav = 0           
  nat = 63            
  ntyp = 4            
  ecutwfc = 40.0
  ecutrho = 280.0    
  occupations = 'smearing'
  smearing = 'mv'     
  nosym = .TRUE.
  degauss = 0.02      
  vdw_corr='grimme-d3'
/

&ELECTRONS
  conv_thr = 1e-6        
  electron_maxstep = 200
  mixing_beta = 0.4   
  diagonalization = 'david'  
  startingwfc = "atomic+random"
  startingpot = "atomic"
/

&IONS
  ion_dynamics = 'bfgs' 
/

&CELL
  cell_dofree = 'all'   
/

ATOMIC_SPECIES
  Zn  65.38  Zn_pbe_v1.uspp.F.UPF  
  N      14.00674  N.pbe-n-radius_5.UPF
  C      12.01070  C.pbe-n-kjpaw_psl.1.0.0.UPF
  H       1.00794  H.pbe-rrkjus_psl.1.0.0.UPF

CELL_PARAMETERS (angstrom) 
       10.4574394226         0.0000000000         0.0000000000
       -5.2287197113         9.0564081985         0.0000000000
        0.0000000000         0.0000000000        23.7463226318

ATOMIC_POSITIONS (angstrom)
Zn               0.0000000000        1.5094010000        1.2182900000    0   0   0
Zn               5.2287200000        1.5094010000        1.2182900000    0   0   0
Zn              -0.0224522377        1.5507223995        6.1775460787
Zn               5.2075207267        1.5491163703        6.2359343206
Zn              -1.3071800000        3.7735030000        1.2182900000    0   0   0
Zn               3.9215400000        3.7735030000        1.2182900000    0   0   0
Zn              -1.3205353505        3.8268015655        6.1786311349
Zn               3.8953392336        3.8083143589        6.2045352752
Zn              -2.6143600000        6.0376050000        1.2182900000    0   0   0
Zn               2.6143600000        6.0376050000        1.2182900000    0   0   0
Zn              -2.6216814262        6.0708305285        6.2287917541
Zn               2.5717154476        6.0685951901        6.1679109187
Zn              -3.9215400000        8.3017080000        1.2182900000    0   0   0
Zn               1.3071800000        8.3017080000        1.2182900000    0   0   0
Zn              -3.9459575012        8.3395601979        6.2167827551
Zn               1.2758966783        8.3249851692        6.1807754621
Zn               2.6143600000        1.5094010000        1.2182900000    0   0   0
Zn               7.8430800000        1.5094010000        1.2182900000    0   0   0
Zn               2.5879165643        1.5506107915        6.2034787021
Zn               7.8251558065        1.5472000805        6.1956689073
Zn               1.3071800000        3.7735030000        1.2182900000    0   0   0
Zn               6.5359000000        3.7735030000        1.2182900000    0   0   0
Zn               1.2740049306        3.8276981327        6.1704544777
Zn               6.5150721046        3.8057092923        6.2255979310
Zn               0.0000000000        6.0376050000        1.2182900000    0   0   0
Zn               5.2287200000        6.0376050000        1.2182900000    0   0   0
Zn              -0.0236680983        6.0768019091        6.6319567636
Zn               5.2026862460        6.0695417439        6.2011727574
Zn              -1.3071800000        8.3017080000        1.2182900000    0   0   0
Zn               3.9215400000        8.3017080000        1.2182900000    0   0   0
Zn              -1.3242337563        8.3267157517        6.2276718253
Zn               3.8987351617        8.3374652549        6.1810678718
Zn               1.2872586382        0.7762812304        3.7048528561
Zn               6.5094610599        0.7833132009        3.7347438734
Zn              -0.0247610359        3.0516871606        3.7314181472
Zn               5.2131914387        3.0407067165        3.7028898503
Zn              -1.3211793993        5.3158607430        3.7159753435
Zn               3.9031773818        5.3079848555        3.7114686754
Zn              -2.6246918332        7.5711934000        3.7501103725
Zn               2.5848440392        7.5764137764        3.7321976694
Zn               3.9059169636        0.7757148728        3.7441774454
Zn               9.1287214006        0.7856210909        3.6990587435
Zn               2.5943703989        3.0417326133        3.7129167726
Zn               7.8217275251        3.0493321776        3.7316477318
Zn               1.2735752799        5.3148935157        3.6922719609
Zn               6.5249472487        5.3082574338        3.7442580920
Zn              -0.0244922363        7.5649571086        3.7196895676
Zn               5.2149625163        7.5802871129        3.7036074114
C                4.7296762407        3.0348278369       10.7493605999
C                3.5745308705        3.7865383828       10.3869094832
C                3.6500310367        5.1832927891       10.2191265899
C                2.3464464192        3.1369957149       10.1556472142
C                2.5260090881        5.9110233948        9.8545210408
C                1.2245672466        3.8654451782        9.7834852789
C                1.2938866677        5.2647599202        9.6456905039
N                5.6738686404        2.4106513947       11.0357390920
N                0.1791200779        5.9897684978        9.2121259939
H               -0.7260053697        5.5738068400        9.4164695437
H                0.1931109664        6.9860377129        9.4189550997
H                2.2783643243        2.0546300738       10.2615564485
H                4.5956283471        5.6976277259       10.3873624458
H                0.2807634411        3.3459983817        9.6096191459
H                2.6014263952        6.9932840742        9.7310454236

K_POINTS automatic 
  3 3 1  0 0 0  

