&CONTROL
  calculation = 'relax'    
  restart_mode = 'from_scratch' 
  prefix = 'Zn101_2x2x4_relax_ecutrho250_ecutwfc25_H2O'  
  outdir = './tmp'       
  pseudo_dir = '/home/ys/qepseudo/SSSP_1.3.0_PBE_efficiency' 
  tprnfor = .true.        
  tstress = .true.       
  verbosity = 'high'      
  etot_conv_thr = 1.0e-5  
  forc_conv_thr =  5.0e-4 

  max_seconds   =  1.72800e+05 
  nstep         = 100          
/

&SYSTEM
  ibrav = 0           
  nat = 35            
  ntyp = 3            
  ecutwfc = 30.0     
  ecutrho = 120.0    
  occupations = 'smearing'
  smearing = 'mv'     
  degauss = 0.02      
  nosym = .TRUE.
/

&ELECTRONS
  conv_thr = 7.35e-7        
  electron_maxstep = 200
  mixing_beta = 0.7   
  diagonalization = 'david'  
  startingwfc = "atomic+random"
  startingpot = "atomic"
/

&IONS
  ion_dynamics = 'bfgs' 
/

&CELL
  cell_dofree = 'all'   
/

ATOMIC_SPECIES
  Zn  65.38  Zn_pbe_v1.uspp.F.UPF  
  H  1.008   H.pbe-rrkjus_psl.1.0.0.UPF  
  O  16.000   O.pbe-n-kjpaw_psl.0.1.UPF  

CELL_PARAMETERS (angstrom) 
    11.0603027344         0.0000000000         0.0000000000
    -1.2359294312         5.0805499959         0.0000000000
    -46.45602384          -11.30121092          22.2132353415

ATOMIC_POSITIONS (angstrom)  
Zn                -1.0735556570      1.0841422360      1.1977635690    0   0   0
Zn                -5.3677776710      0.0395003420      3.2510724040    0   0   0
Zn                -9.6287754619     -1.0014401494      5.7534779600
Zn               -13.7983441092     -2.0062523947      7.8475087907
Zn                -1.6915203730      3.6244172340      1.1977635690    0   0   0
Zn                -5.9857423860      2.5797753400      3.2510724040    0   0   0
Zn               -10.2533175192      1.5317597888      5.7551768976
Zn               -14.4197484574      0.5292695363      7.8469498971
Zn                 4.4565957100      1.0841422360      1.1977635690    0   0   0
Zn                 0.1623736960      0.0395003420      3.2510724040    0   0   0
Zn                -4.2155401658     -1.0239533168      5.6145169347
Zn                -7.9495802083     -1.9466467114      7.7091669357
Zn                 3.8386309950      3.6244172340      1.1977635690    0   0   0
Zn                -0.4555910190      2.5797753400      3.2510724040    0   0   0
Zn                -4.8292497880      1.5155622921      5.6183531295
Zn                -8.5962144566      0.5818042119      7.7799826563
Zn                 1.6915202950      0.4114908680      0.8555452660    0   0   0
Zn                -2.6027017190     -0.6331510260      2.9088541010    0   0   0
Zn                -6.9079027216     -1.6815064733      5.0697804871
Zn               -11.2589402769     -2.7377883278      7.2308231430
Zn                 1.0735555790      2.9517658660      0.8555452660    0   0   0
Zn                -3.2206664340      1.9071239720      2.9088541010    0   0   0
Zn                -7.5269175370      0.8586003369      5.0828662160
Zn               -11.8668822036     -0.1964425948      7.2507781297
Zn                 7.2216716620      0.4114908680      0.8555452660    0   0   0
Zn                 2.9274496480     -0.6331510260      2.9088541010    0   0   0
Zn                -1.5248864128     -1.7160883874      5.1103814270
Zn                -5.4530518835     -2.6850094778      7.4731032331
Zn                 6.6037069470      2.9517658660      0.8555452660    0   0   0
Zn                 2.3094849330      1.9071239720      2.9088541010    0   0   0
Zn                -2.1502024728      0.8198873028      5.1018937644
Zn                -6.0808843835     -0.1394285627      7.4733123232                                 
O       -8.6756841194      0.7704480127     10.9645843370                 
H       -8.4093429224      1.7030984667     10.8299303369                 
H       -7.8257496046      0.2955802943     11.0524155588      

K_POINTS automatic 
  3 3 1  0 0 0  

