&CONTROL
  calculation = 'relax'    
  restart_mode = 'restart' 
  prefix = 'Zn101_2x2x4_relax_ecutrho250_ecutwfc25_H2O'  
  outdir = './tmp'       
  pseudo_dir = '/home/ys/qepseudo/SSSP_1.3.0_PBE_efficiency' 
  tprnfor = .true.        
  tstress = .true.       
  verbosity = 'high'      
  etot_conv_thr = 1.0e-5  
  forc_conv_thr =  5.0e-4 

  max_seconds   =  1.72800e+05 
  nstep         = 100          
/

&SYSTEM
  ibrav = 0           
  nat = 35            
  ntyp = 3            
  ecutwfc = 30.0     
  ecutrho = 120.0    
  occupations = 'smearing'
  smearing = 'mv'     
  degauss = 0.02      
  nosym = .TRUE.
/

&ELECTRONS
  conv_thr = 7.35e-7        
  electron_maxstep = 200
  mixing_beta = 0.7   
  diagonalization = 'david'  
  startingwfc = "atomic+random"
  startingpot = "atomic"
/

&IONS
  ion_dynamics = 'bfgs' 
/

&CELL
  cell_dofree = 'all'   
/

ATOMIC_SPECIES
  Zn  65.38  Zn_pbe_v1.uspp.F.UPF  
  H  1.008   H.pbe-rrkjus_psl.1.0.0.UPF  
  O  16.000   O.pbe-n-kjpaw_psl.0.1.UPF  

CELL_PARAMETERS (angstrom) 
    11.0603027344         0.0000000000         0.0000000000
    -1.2359294312         5.0805499959         0.0000000000
    -46.45602384          -11.30121092          22.2132353415

ATOMIC_POSITIONS (angstrom)  
Zn              -1.0735556570        1.0841422360        1.1977635690    0   0   0
Zn              -5.3677776710        0.0395003420        3.2510724040    0   0   0
Zn              -8.5814650687       -0.7648334565        6.8871034067
Zn             -12.6935346687       -1.7528491606        7.9265920690
Zn              -1.6915203730        3.6244172340        1.1977635690    0   0   0
Zn              -5.9857423860        2.5797753400        3.2510724040    0   0   0
Zn              -9.2006385391        1.7687679839        6.8840584908
Zn             -13.3197510055        0.7951791388        7.9185681645
Zn               4.4565957100        1.0841422360        1.1977635690    0   0   0
Zn               0.1623736960        0.0395003420        3.2510724040    0   0   0
Zn              -4.0472311054       -0.9943402047        5.6389740043
Zn              -6.5017432008       -1.6072945132        8.1277228330
Zn               3.8386309950        3.6244172340        1.1977635690    0   0   0
Zn              -0.4555910190        2.5797753400        3.2510724040    0   0   0
Zn              -4.6165146471        1.5670543796        5.6110368791
Zn              -7.1899228709        0.9148056942        8.3383214928
Zn               1.6915202950        0.4114908680        0.8555452660    0   0   0
Zn              -2.6027017190       -0.6331510260        2.9088541010    0   0   0
Zn              -6.7440851432       -1.6447566108        5.0657670680
Zn             -10.4289965091       -2.5500568200        6.6517132716
Zn               1.0735555790        2.9517658660        0.8555452660    0   0   0
Zn              -3.2206664340        1.9071239720        2.9088541010    0   0   0
Zn              -7.3485269960        0.8903128809        5.1258114934
Zn             -11.0542780436       -0.0220407782        6.6453079929
Zn               7.2216716620        0.4114908680        0.8555452660    0   0   0
Zn               2.9274496480       -0.6331510260        2.9088541010    0   0   0
Zn              -1.3404378517       -1.6715768388        5.0728652626
Zn              -4.0877411036       -2.3693109574        8.0191231903
Zn               6.6037069470        2.9517658660        0.8555452660    0   0   0
Zn               2.3094849330        1.9071239720        2.9088541010    0   0   0
Zn              -1.9327570098        0.8766221797        5.0702108504
Zn              -4.7023682343        0.1919801404        8.0203843434
O               -8.1682723548        0.5720300947       10.7753438116
H               -9.0754544191        0.9419773376       10.7018588780
H               -7.7234791048        1.1716238828       11.4115589656   

K_POINTS automatic 
  3 3 1  0 0 0  

