&CONTROL
  calculation = 'relax'    
  forc_conv_thr =  5.0e-4 
  etot_conv_thr = 1.0e-5  
  max_seconds   =  1.72800e+05 
  nstep         = 100          
  pseudo_dir = "/home/yongsang/Research/PSID_server_room/qe/[00]QE/qepseudo/SSSP_1.3.0_PBE_efficiency" 
  outdir = './tmp'

  restart_mode = 'from_scratch' 
  prefix = 'aniline_protonated'  
  tprnfor = .true.        
  tstress = .true.       
  verbosity = 'high' 
    tefield     = .TRUE.
    dipfield    = .true.
    gate        = .true.
/

&SYSTEM
    a           =  2.50000e+01
    ecutwfc = 40.0     
    ecutrho = 280.0   
    ibrav       = 1
    nat         = 15
    ntyp        = 3
    occupations = 'smearing'
    smearing = 'mv'     
    degauss = 0.02      
    nosym = .TRUE.
    vdw_corr='grimme-d3'
    tot_charge =  1
    zgate       = 0.9
	edir = 3
/

&ELECTRONS
  conv_thr = 1e-6        
  electron_maxstep = 200
  mixing_beta = 0.4   
  diagonalization = 'david'  
  startingwfc = "atomic+random"
  startingpot = "atomic"
/

&IONS
    ion_dynamics = "bfgs"
/

&CELL
  cell_dofree = 'all'   
/

ATOMIC_SPECIES
N      14.00674  N.pbe-n-radius_5.UPF
C      12.01070  C.pbe-n-kjpaw_psl.1.0.0.UPF
H       1.00794  H.pbe-rrkjus_psl.1.0.0.UPF

ATOMIC_POSITIONS {angstrom}
N        9.4787956448     11.7967977314     10.9611979466                 
C       11.7896896648     12.6134959211     10.8762229189                 
C       10.8770890260     11.5461065268     10.9420065425                 
C       13.1657600469     12.3645783208     10.8602256713                 
C       11.3639529916     10.2282459226     10.9948501490                 
C       13.6410154940     11.0512921884     10.9112536497                 
C       12.7409746309      9.9841702691     10.9788786018                 
H       11.4342148143     13.6354740463     10.8374796340                 
H        9.2000505209     11.9268084409     11.8434151485                 
H       13.8638984108     13.1900955057     10.8088842442                 
H       10.6773440588      9.3926664004     11.0486758445                 
H       14.7064319527     10.8605270878     10.8991662283                 
H       13.1102949805      8.9676718035     11.0194564133                 
H        9.2114436226     12.6844549984     10.5102818652                 
H        8.9068736051     11.0014921851     10.6402757623  

K_POINTS automatic 
  3 3 1  0 0 0  
