&CONTROL
  calculation = 'relax'    
  restart_mode ='restart' 
  prefix = 'Zn002_3layer_ABN_relax'  
  outdir = './tmp'       
  pseudo_dir = '/home/ys/qepseudo/SSSP_1.3.0_PBE_efficiency' 
  tprnfor = .true.        
  tstress = .true.       
  verbosity = 'high'      
  etot_conv_thr = 1.0e-5  
  forc_conv_thr =  5.0e-4 
  max_seconds   =  1.72800e+06
  nstep         = 100          
/

&SYSTEM
  ibrav = 0           
  nat = 63            
  ntyp = 4            
  ecutwfc = 40.0
  ecutrho = 280.0    
  occupations = 'smearing'
  smearing = 'mv'     
  nosym = .TRUE.
  degauss = 0.02      
  vdw_corr='grimme-d3'
/

&ELECTRONS
  conv_thr = 1e-6        
  electron_maxstep = 200
  mixing_beta = 0.4   
  diagonalization = 'david'  
  startingwfc = "atomic+random"
  startingpot = "atomic"
/

&IONS
  ion_dynamics = 'bfgs' 
/

&CELL
  cell_dofree = 'all'   
/

ATOMIC_SPECIES
  Zn  65.38  Zn_pbe_v1.uspp.F.UPF  
  N      14.00674  N.pbe-n-radius_5.UPF
  C      12.01070  C.pbe-n-kjpaw_psl.1.0.0.UPF
  H       1.00794  H.pbe-rrkjus_psl.1.0.0.UPF

CELL_PARAMETERS (angstrom) 
       10.4574394226         0.0000000000         0.0000000000
       -5.2287197113         9.0564081985         0.0000000000
        0.0000000000         0.0000000000        23.7463226318

ATOMIC_POSITIONS (angstrom)
Zn               0.0000000000        1.5094010000        1.2182900000    0   0   0
Zn               5.2287200000        1.5094010000        1.2182900000    0   0   0
Zn              -0.0121504442        1.5159641326        6.1678112838
Zn               5.2148817366        1.5152350811        6.2265579956
Zn              -1.3071800000        3.7735030000        1.2182900000    0   0   0
Zn               3.9215400000        3.7735030000        1.2182900000    0   0   0
Zn              -1.3228387922        3.7760096014        6.1547607347
Zn               3.9037212495        3.7804568446        6.1009341591
Zn              -2.6143600000        6.0376050000        1.2182900000    0   0   0
Zn               2.6143600000        6.0376050000        1.2182900000    0   0   0
Zn              -2.6316090676        6.0392223355        6.1706961268
Zn               2.5980889264        6.0420423956        6.1770091747
Zn              -3.9215400000        8.3017080000        1.2182900000    0   0   0
Zn               1.3071800000        8.3017080000        1.2182900000    0   0   0
Zn              -3.9350923558        8.3076428184        6.1940786089
Zn               1.2937820371        8.3076238161        6.1689744193
Zn               2.6143600000        1.5094010000        1.2182900000    0   0   0
Zn               7.8430800000        1.5094010000        1.2182900000    0   0   0
Zn               2.6032149597        1.5158530665        6.1423077659
Zn               7.8292308147        1.5144540250        6.1998262413
Zn               1.3071800000        3.7735030000        1.2182900000    0   0   0
Zn               6.5359000000        3.7735030000        1.2182900000    0   0   0
Zn               1.2911494303        3.7785750474        6.1635977086
Zn               6.5213290811        3.7781967357        6.2095281686
Zn               0.0000000000        6.0376050000        1.2182900000    0   0   0
Zn               5.2287200000        6.0376050000        1.2182900000    0   0   0
Zn              -0.0147154444        6.0431033483        6.0944931255
Zn               5.2134153158        6.0398540158        6.1499948585
Zn              -1.3071800000        8.3017080000        1.2182900000    0   0   0
Zn               3.9215400000        8.3017080000        1.2182900000    0   0   0
Zn              -1.3192004477        8.3119286859        6.1755087527
Zn               3.9061910611        8.3032294753        6.1755862856
Zn               1.2987192402        0.7545305608        3.6929984851
Zn               6.5282788878        0.7577409080        3.7099150839
Zn              -0.0102218192        3.0189401516        3.6860050691
Zn               5.2258833569        3.0179982334        3.6891068943
Zn              -1.3202503031        5.2835311367        3.6846606464
Zn               3.9157072320        5.2887397330        3.6801885240
Zn              -2.6235162841        7.5516686330        3.7035930509
Zn               2.6071503322        7.5527851609        3.6913427905
Zn               3.9158441325        0.7566168443        3.6955911228
Zn               9.1406461192        0.7573501528        3.7099476714
Zn               2.6060141989        3.0178308309        3.6768113899
Zn               7.8342696152        3.0200203382        3.7053498436
Zn               1.3009089497        5.2860094697        3.6621513198
Zn               6.5288017520        5.2845495145        3.6946904447
Zn              -0.0078100402        7.5564261620        3.6867372948
Zn               5.2220846305        7.5518322888        3.6988828593
C                4.7165966731        3.1732420194        9.5184669473
C                3.4898557976        3.8913118499        9.5275738786
C                2.2593076810        3.2025155932        9.4947428851
C                3.4793959375        5.3018141352        9.5067378645
C                1.0610607131        3.8966661749        9.4339696752
C                2.2818890382        5.9981160477        9.4471692556
C                1.0469793108        5.3102520235        9.4082242006
N                5.7228750023        2.5787675621        9.4724144749
N               -0.1369735183        5.9963495103        9.3450404329
H               -0.1137080370        6.9675609039        9.0494905407
H               -0.9649477919        5.4939307263        9.0393027487
H                4.4234003923        5.8470850361        9.5100780981
H                2.2534010256        2.1124566974        9.4920995798
H                2.2891864330        7.0885842079        9.4143439369
H                0.1178951235        3.3494143917        9.3907626943

K_POINTS automatic 
  3 3 1  0 0 0  

