&CONTROL
  calculation = 'relax'    
  forc_conv_thr =  5.0e-4 
  etot_conv_thr = 1.0e-5  
  max_seconds   =  1.72800e+05 
  nstep         = 100          
  pseudo_dir = "/home/yongsang/Research/PSID_server_room/qe/[00]QE/qepseudo/SSSP_1.3.0_PBE_efficiency" 
  outdir = './tmp'

  restart_mode = 'from_scratch' 
  prefix = 'aniline_protonated'  
  tprnfor = .true.        
  tstress = .true.       
  verbosity = 'high'
/

&SYSTEM
    a           =  2.50000e+01
    ecutwfc = 40.0     
    ecutrho = 280.0   
    ibrav       = 1
    nat         = 14
    ntyp        = 3
    occupations = 'smearing'
    smearing = 'mv'     
    degauss = 0.02      
    nosym = .TRUE.
    vdw_corr='grimme-d3'
/

&ELECTRONS
  conv_thr = 1e-6        
  electron_maxstep = 200
  mixing_beta = 0.4   
  diagonalization = 'david'  
  startingwfc = "atomic+random"
  startingpot = "atomic"
/

&IONS
    ion_dynamics = "bfgs"
/

&CELL
  cell_dofree = 'all'   
/

ATOMIC_SPECIES
N      14.00674  N.pbe-n-radius_5.UPF
C      12.01070  C.pbe-n-kjpaw_psl.1.0.0.UPF
H       1.00794  H.pbe-rrkjus_psl.1.0.0.UPF

ATOMIC_POSITIONS (angstrom)
N       -2.1912572803      0.1101734517      0.6735260420                 
C       -0.8230402211      0.1361542214      0.3076825075                 
C       -0.1487628730      1.3604080873      0.1779276562                 
C       -0.1310462677     -1.0621583196      0.0721525777                 
C        1.2022824342      1.3842833940     -0.1833409756                 
C        1.2199877267     -1.0347347980     -0.2889051590                 
C        1.8862229250      0.1875900623     -0.4165733019                 
H       -0.6687475045      2.2933200737      0.3562250658                 
H       -0.6372328455     -2.0145519588      0.1681737985                 
H        1.7188928118      2.3302252264     -0.2824452050                 
H        1.7503096872     -1.9608011968     -0.4696628924                 
H        2.9316823476      0.2074367196     -0.6960228224                 
H       -2.6931524395     -0.7846872665      0.7703846897                 
H       -2.7058575342      0.9857254745      0.8486006721        

K_POINTS automatic 
  3 3 1  0 0 0  
