&CONTROL
  calculation = 'relax'    
  restart_mode = 'restart' 
  prefix = 'Zn002_2x2x4_relax_ecutrho250_ecutwfc25_ABN'  
  outdir = './tmp'       
  pseudo_dir = '/home/ys/qepseudo/SSSP_1.3.0_PBE_efficiency' 
  tprnfor = .true.        
  tstress = .true.       
  verbosity = 'high'      
  etot_conv_thr = 1.0e-5  
  forc_conv_thr =  5.0e-4 

  max_seconds   =  1.72800e+05 
  nstep         = 100          
/

&SYSTEM
  ibrav = 0           
  nat = 47            
  ntyp = 4            
  ecutwfc = 30.0     
  ecutrho = 120.0    
  occupations = 'smearing'
  smearing = 'mv'     
  degauss = 0.02      
  nosym = .TRUE.
/

&ELECTRONS
  conv_thr = 7.35e-7        
  electron_maxstep = 200
  mixing_beta = 0.7   
  diagonalization = 'david'  
  startingwfc = "atomic+random"
  startingpot = "atomic"
/

&IONS
  ion_dynamics = 'bfgs' 
/

&CELL
  cell_dofree = 'all'   
/

ATOMIC_SPECIES
  Zn  65.38  Zn_pbe_v1.uspp.F.UPF  
  C  12.0107   C.pbe-n-kjpaw_psl.1.0.0.UPF  
  N  14.0067   N.pbe-n-radius_5.UPF  
  H  1.008   H.pbe-rrkjus_psl.1.0.0.UPF  

CELL_PARAMETERS (angstrom) 
        5.2287197113         0.0000000000         0.0000000000
       -5.2287197113         9.0564081985         0.0000000000
        0.0000000000         0.0000000000         23.7463216782

ATOMIC_POSITIONS (angstrom)  
Zn              -0.0000000130        1.5094013740        1.2182902100    0   0   0
Zn              -0.0083430380        1.5075831961        6.2460457426
Zn              -1.3071799410        3.7735034240        1.2182902100    0   0   0
Zn              -1.3154474377        3.7701925306        6.2455506585
Zn              -2.6143598690        6.0376054730        1.2182902100    0   0   0
Zn              -2.6212621123        6.0367940252        6.2424486561
Zn              -3.9215397970        8.3017075230        1.2182902100    0   0   0
Zn              -3.9296819475        8.3015589557        6.2468327126
Zn               2.6143598430        1.5094013740        1.2182902100    0   0   0
Zn               2.6062478520        1.5073900306        6.2499551020
Zn               1.3071799150        3.7735034240        1.2182902100    0   0   0
Zn               1.2987677190        3.7693623218        6.2459255176
Zn              -0.0000000130        6.0376054730        1.2182902100    0   0   0
Zn              -0.0096949491        6.0366966251        6.2378428305
Zn              -1.3071799410        8.3017075230        1.2182902100    0   0   0
Zn              -1.3156701697        8.3009905250        6.2447720475
Zn               1.3071799410        0.7547006760        3.6548706290    0   0   0
Zn               1.2955623648        0.7418925234        8.8404940916
Zn               0.0000000130        3.0188027250        3.6548706290    0   0   0
Zn              -0.0115645130        3.0054583518        8.8431097538
Zn              -1.3071799150        5.2829047750        3.6548706290    0   0   0
Zn              -1.3197056223        5.2708419900        8.8371622422
Zn              -2.6143598430        7.5470068250        3.6548706290    0   0   0
Zn              -2.6266072650        7.5338636340        8.8352301356
Zn               3.9215397970        0.7547006760        3.6548706290    0   0   0
Zn               3.9089946622        0.7414812151        8.8294275855
Zn               2.6143598690        3.0188027250        3.6548706290    0   0   0
Zn               2.6030943126        3.0043977295        8.8265869219
Zn               1.3071799410        5.2829047750        3.6548706290    0   0   0
Zn               1.2942334972        5.2704158478        8.7760542974
Zn               0.0000000130        7.5470068250        3.6548706290    0   0   0
Zn              -0.0127270052        7.5355211310        8.8250628336
C                1.2546665979        4.4151716978       18.0525216870
C                1.3752215763        4.6277945999       16.6486768702
C                2.1940006463        3.7898460072       15.8616726938
C                0.6499334792        5.6565797425       16.0115683849
C                0.7486925125        5.8477005792       14.6403825887
C                2.2993146156        3.9865633633       14.4921192146
C                1.5812845035        5.0213444779       13.8561578156
N                1.1537541052        4.2370693277       19.2085361835
N                1.7321347383        5.2505658510       12.5027941858
H                1.0203525054        5.8100743214       12.0328188009
H                2.0985698527        4.4922695590       11.9268786251
H                2.7580490904        2.9863418491       16.3436150947
H                0.1691498610        6.6435584218       14.1596073745
H                2.9503509474        3.3353648855       13.8978648742
H               -0.0085254981        6.2957920816       16.6065266758   

K_POINTS automatic 
  3 3 1  0 0 0  

