&CONTROL
  calculation = 'relax'    
  restart_mode = 'restart' 
  prefix = 'Zn101_2x2x4_relax_ecutrho250_ecutwfc25_ABN'  
  outdir = './tmp'       
  pseudo_dir = '/home/ys/qepseudo/SSSP_1.3.0_PBE_efficiency' 
  tprnfor = .true.        
  tstress = .true.       
  verbosity = 'high'      
  etot_conv_thr = 1.0e-5  
  forc_conv_thr =  5.0e-4 

  max_seconds   =  1.72800e+05 
  nstep         = 100          
/

&SYSTEM
  ibrav = 0           
  nat = 47            
  ntyp = 4            
  ecutwfc = 30.0     
  ecutrho = 120.0    
  occupations = 'smearing'
  smearing = 'mv'     
  degauss = 0.02      
  nosym = .TRUE.
/

&ELECTRONS
  conv_thr = 7.35e-7        
  electron_maxstep = 200
  mixing_beta = 0.7   
  diagonalization = 'david'  
  startingwfc = "atomic+random"
  startingpot = "atomic"
/

&IONS
  ion_dynamics = 'bfgs' 
/

&CELL
  cell_dofree = 'all'   
/

ATOMIC_SPECIES
  Zn  65.38  Zn_pbe_v1.uspp.F.UPF  
  C  12.0107   C.pbe-n-kjpaw_psl.1.0.0.UPF  
  N  14.0067   N.pbe-n-radius_5.UPF  
  H  1.008   H.pbe-rrkjus_psl.1.0.0.UPF 

CELL_PARAMETERS (angstrom) 
    11.0603027344         0.0000000000         0.0000000000
    -1.2359294312         5.0805499959         0.0000000000
    -46.45602384          -11.30121092          22.2132353415

ATOMIC_POSITIONS (angstrom)  
Zn              -1.0735556570        1.0841422360        1.1977635690    0   0   0
Zn              -5.3677776710        0.0395003420        3.2510724040    0   0   0
Zn              -9.6765931002       -1.0108583997        5.6414657899
Zn             -13.7347639967       -1.9953656850        7.8682375239
Zn              -1.6915203730        3.6244172340        1.1977635690    0   0   0
Zn              -5.9857423860        2.5797753400        3.2510724040    0   0   0
Zn             -10.2920757806        1.5319689794        5.6480627053
Zn             -14.3526483035        0.5468017482        7.8677618813
Zn               4.4565957100        1.0841422360        1.1977635690    0   0   0
Zn               0.1623736960        0.0395003420        3.2510724040    0   0   0
Zn              -4.1309383408       -1.0043932838        5.6766074960
Zn              -8.0405648689       -1.9619880402        7.5809173619
Zn               3.8386309950        3.6244172340        1.1977635690    0   0   0
Zn              -0.4555910190        2.5797753400        3.2510724040    0   0   0
Zn              -4.7819705027        1.5269760313        5.6589250182
Zn              -8.6666513486        0.5753748101        7.6408866494
Zn               1.6915202950        0.4114908680        0.8555452660    0   0   0
Zn              -2.6027017190       -0.6331510260        2.9088541010    0   0   0
Zn              -6.8306199079       -1.6608872537        5.0446441800
Zn             -11.1833456390       -2.7186223042        7.3008237324
Zn               1.0735555790        2.9517658660        0.8555452660    0   0   0
Zn              -3.2206664340        1.9071239720        2.9088541010    0   0   0
Zn              -7.5057349806        0.8639841511        5.0455642332
Zn             -11.7925969122       -0.1774111956        7.3154279363
Zn               7.2216716620        0.4114908680        0.8555452660    0   0   0
Zn               2.9274496480       -0.6331510260        2.9088541010    0   0   0
Zn              -1.4821153165       -1.7057849421        5.1139050649
Zn              -5.4958046120       -2.6854104786        7.4319170897
Zn               6.6037069470        2.9517658660        0.8555452660    0   0   0
Zn               2.3094849330        1.9071239720        2.9088541010    0   0   0
Zn              -2.1027260038        0.8361515642        5.1163951514
Zn              -6.1167395808       -0.1460151525        7.4299821179
C               -8.4855352210       -2.3757779752       16.6436412629
C               -8.5193201426       -2.3162972867       15.2182287529
C               -9.5338571538       -2.9692855756       14.4916341250
C               -7.5526441801       -1.5800244587       14.5086835867
C               -7.5863079254       -1.5224206767       13.1213404197
C               -9.5638763661       -2.9062764994       13.1037767637
C               -8.5787720637       -2.2007264152       12.3917259483
N               -8.4663434735       -2.4114145675       17.8167804911
N               -8.5447560168       -2.2280002038       10.9948423843
H               -8.0797788318       -1.4252889809       10.5662606944
H               -9.4474487613       -2.4093295729       10.5537439245
H              -10.3025139540       -3.5303999676       15.0280464105
H               -6.7782029031       -1.0380737028       15.0592368703
H               -6.8342790297       -0.9346011395       12.5867685315
H              -10.3582611631       -3.4239999154       12.5558181043  

K_POINTS automatic 
  3 3 1  0 0 0  

