&CONTROL
  calculation = 'relax'    
  restart_mode = 'from_scratch' 
  prefix = 'Zn100_2x4x4_relax_ecutrho250_ecutwfc25'  
  outdir = './tmp'       
  pseudo_dir = '/home/ys/qepseudo/SSSP_1.3.0_PBE_efficiency' 
  tprnfor = .true.        
  tstress = .true.       
  verbosity = 'high'      
  etot_conv_thr = 1.0e-5  
  forc_conv_thr =  5.0e-4 
  max_seconds   =  1.72800e+05 
  nstep         = 100          
/

&SYSTEM
  ibrav = 0           
  nat = 64            
  ntyp = 1            
  ecutwfc = 30.0     
  ecutrho = 120.0    
  occupations = 'smearing'
  smearing = 'mv'     
  degauss = 0.02      
  nosym = .TRUE.
/

&ELECTRONS
  conv_thr = 7.35e-7        
  electron_maxstep = 200
  mixing_beta = 0.7   
  diagonalization = 'david'  
  startingwfc = "atomic+random"
  startingpot = "atomic"
/

&IONS
  ion_dynamics = 'bfgs' 
/

&CELL
  cell_dofree = 'all'   
/

ATOMIC_SPECIES
  Zn  65.38  Zn_pbe_v1.uspp.F.UPF  

CELL_PARAMETERS (angstrom) 
        9.7463216782         0.0000000000         0.0000000000
        0.0000000000        10.4574394226         0.0000000000
        0.0000000000       -13.3116235733        23.0564083602

ATOMIC_POSITIONS (angstrom)  
Zn  1.218290210  1.307179938  0.754700681  0 0 0
Zn  1.218290210  6.535899649  0.754700681  0 0 0
Zn  1.218290210  0.000000001  3.018802747  0 0 0
Zn  1.218290210  5.228719712  3.018802747  0 0 0
Zn  1.218290210  -1.307179936  5.282904812  1 1 1
Zn  1.218290210  3.921539775  5.282904812  1 1 1
Zn  1.218290210  -2.614359874  7.547006878  1 1 1
Zn  1.218290210  2.614359838  7.547006878  1 1 1
Zn  1.218290210  3.921539794  0.754700681  0 0 0
Zn  1.218290210  9.150259505  0.754700681  0 0 0
Zn  1.218290210  2.614359857  3.018802747  0 0 0
Zn  1.218290210  7.843079568  3.018802747  0 0 0
Zn  1.218290210  1.307179920  5.282904812  1 1 1
Zn  1.218290210  6.535899631  5.282904812  1 1 1
Zn  1.218290210  -0.000000018  7.547006878  1 1 1
Zn  1.218290210  5.228719694  7.547006878  1 1 1
Zn  6.091451049  1.307179938  0.754700681  0 0 0
Zn  6.091451049  6.535899649  0.754700681  0 0 0
Zn  6.091451049  0.000000001  3.018802747  0 0 0
Zn  6.091451049  5.228719712  3.018802747  0 0 0
Zn  6.091451049  -1.307179936  5.282904812  1 1 1
Zn  6.091451049  3.921539775  5.282904812  1 1 1
Zn  6.091451049  -2.614359874  7.547006878  1 1 1
Zn  6.091451049  2.614359838  7.547006878  1 1 1
Zn  6.091451049  3.921539794  0.754700681  0 0 0
Zn  6.091451049  9.150259505  0.754700681  0 0 0
Zn  6.091451049  2.614359857  3.018802747  0 0 0
Zn  6.091451049  7.843079568  3.018802747  0 0 0
Zn  6.091451049  1.307179920  5.282904812  1 1 1
Zn  6.091451049  6.535899631  5.282904812  1 1 1
Zn  6.091451049  -0.000000018  7.547006878  1 1 1
Zn  6.091451049  5.228719694  7.547006878  1 1 1
Zn  3.654870629  -0.000000019  1.509401385  0 0 0
Zn  3.654870629  5.228719692  1.509401385  0 0 0
Zn  3.654870629  -1.307179956  3.773503450  0 0 0
Zn  3.654870629  3.921539755  3.773503450  0 0 0
Zn  3.654870629  -2.614359893  6.037605515  1 1 1
Zn  3.654870629  2.614359818  6.037605515  1 1 1
Zn  3.654870629  -3.921539831  8.301707581  1 1 1
Zn  3.654870629  1.307179881  8.301707581  1 1 1
Zn  3.654870629  2.614359837  1.509401385  0 0 0
Zn  3.654870629  7.843079548  1.509401385  0 0 0
Zn  3.654870629  1.307179900  3.773503450  0 0 0
Zn  3.654870629  6.535899611  3.773503450  0 0 0
Zn  3.654870629  -0.000000037  6.037605515  1 1 1
Zn  3.654870629  5.228719674  6.037605515  1 1 1
Zn  3.654870629  -1.307179975  8.301707581  1 1 1
Zn  3.654870629  3.921539737  8.301707581  1 1 1
Zn  8.528031468  -0.000000019  1.509401385  0 0 0
Zn  8.528031468  5.228719692  1.509401385  0 0 0
Zn  8.528031468  -1.307179956  3.773503450  0 0 0
Zn  8.528031468  3.921539755  3.773503450  0 0 0
Zn  8.528031468  -2.614359893  6.037605515  1 1 1
Zn  8.528031468  2.614359818  6.037605515  1 1 1
Zn  8.528031468  -3.921539831  8.301707581  1 1 1
Zn  8.528031468  1.307179881  8.301707581  1 1 1
Zn  8.528031468  2.614359837  1.509401385  0 0 0
Zn  8.528031468  7.843079548  1.509401385  0 0 0
Zn  8.528031468  1.307179900  3.773503450  0 0 0
Zn  8.528031468  6.535899611  3.773503450  0 0 0
Zn  8.528031468  -0.000000037  6.037605515  1 1 1
Zn  8.528031468  5.228719674  6.037605515  1 1 1
Zn  8.528031468  -1.307179975  8.301707581  1 1 1
Zn  8.528031468  3.921539737  8.301707581  1 1 1

K_POINTS automatic 
  3 3 1  0 0 0  

