&CONTROL
  calculation = 'relax'    
  restart_mode ='from_scratch' 
  prefix = 'Zn101_optimized_topsite_H2O'  
  outdir = './tmp'       
  pseudo_dir = '/home/ys/qepseudo/SSSP_1.3.0_PBE_efficiency' 
  tprnfor = .true.        
  tstress = .true.       
  verbosity = 'high'      
  etot_conv_thr = 1.0e-5  
  forc_conv_thr =  5.0e-4 
  max_seconds   =  1.72800e+05 
  nstep         = 100          
/

&SYSTEM
  ibrav = 0           
  nat = 67            
  ntyp = 3            
  ecutwfc = 30.0     
  ecutrho = 120.0    
  occupations = 'smearing'
  smearing = 'mv'     
  nosym = .TRUE.
  degauss = 0.02      
/

&ELECTRONS
  conv_thr = 7.35e-7        
  electron_maxstep = 200
  mixing_beta = 0.7   
  diagonalization = 'david'  
  startingwfc = "atomic+random"
  startingpot = "atomic"
/

&IONS
  ion_dynamics = 'bfgs' 
/

&CELL
  cell_dofree = 'all'   
/

ATOMIC_SPECIES
  Zn  65.38  Zn_pbe_v1.uspp.F.UPF  
  H  1.008   H.pbe-rrkjus_psl.1.0.0.UPF  
  O  16.000   O.pbe-n-kjpaw_psl.0.1.UPF   

CELL_PARAMETERS (angstrom) 
       11.0603027344         0.0000000000         0.0000000000
       -2.4718588623        10.1610999917         0.0000000000
      -46.4560228483       -11.3012106837        22.2132348689

ATOMIC_POSITIONS (angstrom)
Zn  -1.0735556040  1.0841422490  1.1977635440  0 0 0
Zn  -2.3094850350  6.1646922450  1.1977635440  0 0 0
Zn  -5.3677775260  0.0395003770  3.2510723350  0 0 0
Zn  -6.6037069570  5.1200503720  3.2510723350  0 0 0
Zn  -9.7089195560  -1.0153197644  5.5574001830  0 0 0
Zn  -10.9444612646  4.0651762061  5.5568475472  0 0 0
Zn  -13.7213723078  -1.9892785863  7.6432241110  1 1 1
Zn  -14.9560808164  3.0911083361  7.6430619064  1 1 1
Zn  -1.6915203190  3.6244172470  1.1977635440  0 0 0
Zn  -2.9274497510  8.7049672430  1.1977635440  0 0 0
Zn  -5.9857422410  2.5797753750  3.2510723350  0 0 0
Zn  -7.2216716720  7.6603253700  3.2510723350  0 0 0
Zn  -10.3264176447  1.5250682890  5.5573868096  0 0 0
Zn  -11.5628996562  6.6053331603  5.5568587833  0 0 0
Zn  -14.3383694826  0.5514374648  7.6424695394  1 1 1
Zn  -15.5754029750  5.6308583921  7.6435068380  1 1 1
Zn  4.4565957630  1.0841422490  1.1977635440  0 0 0
Zn  3.2206663320  6.1646922450  1.1977635440  0 0 0
Zn  0.1623738410  0.0395003770  3.2510723350  0 0 0
Zn  -1.0735555900  5.1200503720  3.2510723350  0 0 0
Zn  -4.1792282939  -1.0153627723  5.5588462762  0 0 0
Zn  -5.4152205082  4.0648737576  5.5585311673  0 0 0
Zn  -8.1945450367  -1.9906256666  7.6440693812  1 1 1
Zn  -9.4312199582  3.0901066087  7.6443025109  1 1 1
Zn  3.8386310480  3.6244172470  1.1977635440  0 0 0
Zn  2.6027016170  8.7049672430  1.1977635440  0 0 0
Zn  -0.4555908740  2.5797753750  3.2510723350  0 0 0
Zn  -1.6915203050  7.6603253700  3.2510723350  0 0 0
Zn  -4.7972853979  1.5244358199  5.5588288137  0 0 0
Zn  -6.0330863402  6.6056334593  5.5585535707  0 0 0
Zn  -8.8132992773  0.5500454702  7.6443788547  1 1 1
Zn  -10.0483640610  5.6304414812  7.6440943512  1 1 1
Zn  1.6915203330  0.4114908770  0.8555452480  0 0 0
Zn  0.4555909020  5.4920408730  0.8555452480  0 0 0
Zn  -2.6027015890  -0.6331509950  2.9088540390  0 0 0
Zn  -3.8386310200  4.4473990010  2.9088540390  0 0 0
Zn  -6.9469216156  -1.6917672198  5.0366214099  0 0 0
Zn  -8.1827395462  3.3890769520  5.0367887488  0 0 0
Zn  -11.1182059302  -2.7018510587  7.3039457638  1 1 1
Zn  -12.3529337251  2.3791608544  7.3040019961  1 1 1
Zn  1.0735556170  2.9517658750  0.8555452480  0 0 0
Zn  -0.1623738140  8.0323158710  0.8555452480  0 0 0
Zn  -3.2206663040  1.9071240030  2.9088540390  0 0 0
Zn  -4.4565957350  6.9876739990  2.9088540390  0 0 0
Zn  -7.5649765968  0.8484405585  5.0367436921  0 0 0
Zn  -8.8005772481  5.9294148523  5.0366560249  0 0 0
Zn  -11.7355211386  -0.1613220661  7.3041997017  1 1 1
Zn  -12.9715639520  4.9192102454  7.3037498091  1 1 1
Zn  7.2216717000  0.4114908770  0.8555452480  0 0 0
Zn  5.9857422690  5.4920408730  0.8555452480  0 0 0
Zn  2.9274497780  -0.6331509950  2.9088540390  0 0 0
Zn  1.6915203470  4.4473990010  2.9088540390  0 0 0
Zn  -1.4162111914  -1.6911008414  5.0365779004  0 0 0
Zn  -2.6518817476  3.3887563827  5.0360840250  0 0 0
Zn  -5.5909851415  -2.7022171332  7.3034669440  1 1 1
Zn  -6.8276480205  2.3775479218  7.3037436654  1 1 1
Zn  6.6037069850  2.9517658750  0.8555452480  0 0 0
Zn  5.3677775540  8.0323158710  0.8555452480  0 0 0
Zn  2.3094850630  1.9071240030  2.9088540390  0 0 0
Zn  1.0735556320  6.9876739990  2.9088540390  0 0 0
Zn  -2.0337195757  0.8489305936  5.0365785276  0 0 0
Zn  -3.2702789950  5.9292477955  5.0360658650  0 0 0
Zn  -6.2095605799  -0.1625612169  7.3031397682  1 1 1
Zn  -7.4450153871  4.9184572000  7.3040810687  1 1 1
O  -6.3374549004  2.8184399284  10.3396209684  
H  -7.0419892072  3.4295050844  10.6484072095  
H  -6.5788523146  1.9602866994  10.7493197477     

K_POINTS automatic 
  3 3 1  0 0 0  

