&CONTROL
  calculation = 'relax'    
  restart_mode ='from_scratch' 
  prefix = 'Zn002_3layer_relax'  
  outdir = './tmp'       
  pseudo_dir = '/home/yongsang/Research/PSID_server_room/qe/[00]QE/qepseudo/SSSP_1.3.0_PBE_efficiency' 
  tprnfor = .true.        
  tstress = .true.       
  verbosity = 'high'      
  etot_conv_thr = 1.0e-5  
  forc_conv_thr =  5.0e-4 
  max_seconds   =  1.72800e+06
  nstep         = 500          
  dipfield = .true.
	tefield=.true. 
/

&SYSTEM
  ibrav = 0           
  nat = 48            
  ntyp = 1            
  ecutwfc = 40.0
  ecutrho = 280.0    
  occupations = 'smearing'
  smearing = 'mv'     
  nosym = .TRUE.
  degauss = 0.02      
  vdw_corr='grimme-d3'
/

&ELECTRONS
  conv_thr = 1e-6        
  electron_maxstep = 200
  mixing_beta = 0.4   
  diagonalization = 'david'  
  startingwfc = "atomic+random"
  startingpot = "atomic"
/

&IONS
  ion_dynamics = 'bfgs' 
/

&CELL
  cell_dofree = 'all'   
/

ATOMIC_SPECIES
  Zn  65.38  Zn_pbe_v1.uspp.F.UPF  

CELL_PARAMETERS (angstrom) 
       10.4574394226         0.0000000000         0.0000000000
       -5.2287197113         9.0564081985         0.0000000000
        0.0000000000         0.0000000000        23.7463226318

ATOMIC_POSITIONS (angstrom)  
Zn               0.0000000000        1.5094010000        1.2182900000    0   0   0
Zn               5.2287200000        1.5094010000        1.2182900000    0   0   0
Zn               0.0000083671        1.5093082907        6.2711362027
Zn               5.2286786630        1.5096736463        6.2703770333
Zn              -1.3071800000        3.7735030000        1.2182900000    0   0   0
Zn               3.9215400000        3.7735030000        1.2182900000    0   0   0
Zn              -1.3071945527        3.7734258802        6.2699791334
Zn               3.9216523053        3.7736950076        6.2691220292
Zn              -2.6143600000        6.0376050000        1.2182900000    0   0   0
Zn               2.6143600000        6.0376050000        1.2182900000    0   0   0
Zn              -2.6146641068        6.0375486519        6.2688155306
Zn               2.6146719854        6.0375031384        6.2699707118
Zn              -3.9215400000        8.3017080000        1.2182900000    0   0   0
Zn               1.3071800000        8.3017080000        1.2182900000    0   0   0
Zn              -3.9217404835        8.3016417432        6.2698588491
Zn               1.3073998022        8.3016867062        6.2712454969
Zn               2.6143600000        1.5094010000        1.2182900000    0   0   0
Zn               7.8430800000        1.5094010000        1.2182900000    0   0   0
Zn               2.6141585806        1.5094203260        6.2713434685
Zn               7.8432840445        1.5094989746        6.2700910950
Zn               1.3071800000        3.7735030000        1.2182900000    0   0   0
Zn               6.5359000000        3.7735030000        1.2182900000    0   0   0
Zn               1.3071463999        3.7733956756        6.2711848945
Zn               6.5357882690        3.7737291653        6.2678937027
Zn               0.0000000000        6.0376050000        1.2182900000    0   0   0
Zn               5.2287200000        6.0376050000        1.2182900000    0   0   0
Zn              -0.0000503788        6.0373779022        6.2711289012
Zn               5.2287491894        6.0375923967        6.2676854343
Zn              -1.3071800000        8.3017080000        1.2182900000    0   0   0
Zn               3.9215400000        8.3017080000        1.2182900000    0   0   0
Zn              -1.3075029033        8.3016903564        6.2712264175
Zn               3.9218106186        8.3016531144        6.2698379086
Zn               1.3069625244        0.7547404259        3.7452189567
Zn               6.5361427627        0.7552566399        3.7448596920
Zn               0.0000444275        3.0184441082        3.7452148026
Zn               5.2286912724        3.0192977478        3.7442763065
Zn              -1.3075645426        5.2824612854        3.7445086005
Zn               3.9219746363        5.2827363382        3.7439818702
Zn              -2.6149930138        7.5471064638        3.7445048585
Zn               2.6150670849        7.5469612089        3.7446199862
Zn               3.9210750037        0.7551138993        3.7452579080
Zn               9.1506859304        0.7548047517        3.7448112957
Zn               2.6144137321        3.0187788393        3.7451303392
Zn               7.8430359075        3.0189051047        3.7442459427
Zn               1.3074908402        5.2823516235        3.7450085402
Zn               6.5355185232        5.2827978083        3.7435380897
Zn              -0.0001740083        7.5470136669        3.7452233033
Zn               5.2288282294        7.5469480756        3.7439961035

K_POINTS automatic 
  3 3 1  0 0 0  

