&CONTROL
  calculation = 'relax'    
  restart_mode ='from_scratch' 
  prefix = '04_Zn101_ABN_lean'  
  outdir = './tmp'       
  pseudo_dir = '/home/yongsang/Research/PSID_server_room/qe/[00]QE/qepseudo/SSSP_1.3.0_PBE_efficiency' 
  tprnfor = .true.        
  tstress = .true.       
  verbosity = 'high'      
  etot_conv_thr = 1.0e-5  
  forc_conv_thr =  5.0e-4 
  max_seconds   =  1.72800e+06
  nstep         = 500          
/

&SYSTEM
  ibrav = 0           
  nat = 63       
  ntyp = 4
  ecutwfc = 40.0
  ecutrho = 280.0    
  occupations = 'smearing'
  smearing = 'mv'     
  nosym = .TRUE.
  degauss = 0.02      
  vdw_corr='grimme-d3'
/

&ELECTRONS
  conv_thr = 1e-6        
  electron_maxstep = 200
  mixing_beta = 0.4   
  diagonalization = 'david'  
  startingwfc = "atomic+random"
  startingpot = "atomic"
/

&IONS
  ion_dynamics = 'bfgs' 
/

&CELL
  cell_dofree = 'all'   
/

ATOMIC_SPECIES
  Zn  65.38  Zn_pbe_v1.uspp.F.UPF  
  N      14.00674  N.pbe-n-radius_5.UPF
  C      12.01070  C.pbe-n-kjpaw_psl.1.0.0.UPF
  H       1.00794  H.pbe-rrkjus_psl.1.0.0.UPF

CELL_PARAMETERS (angstrom) 
       11.0603027344         0.0000000000         0.0000000000
       -2.4718588623        10.1610999917         0.0000000000
      -46.4560228483       -11.3012106837        22.2132348689

ATOMIC_POSITIONS (angstrom)
Zn              -1.0735560000        1.0841420000        1.1977640000    0   0   0
Zn              -2.3094850000        6.1646920000        1.1977640000    0   0   0
Zn              -4.2952888133        0.3016122053        4.2863739511
Zn              -5.5456064319        5.3780741200        4.3003540979
Zn              -8.2492878404       -0.6908828630        5.8301152066
Zn              -9.5705653248        4.3845866937        5.7499676031
Zn              -1.6915200000        3.6244170000        1.1977640000    0   0   0
Zn              -2.9274500000        8.7049670000        1.1977640000    0   0   0
Zn              -4.9212812837        2.8401589400        4.2764100758
Zn              -6.1520291926        7.9182484274        4.2946762802
Zn              -8.9410780871        1.8305385807        5.7478416654
Zn             -10.0943086797        6.9408919016        5.8939850376
Zn               4.4565960000        1.0841420000        1.1977640000    0   0   0
Zn               3.2206660000        6.1646920000        1.1977640000    0   0   0
Zn               0.3805600970        0.0992927607        3.4716421793
Zn              -0.8448153214        5.1781682693        3.4679042451
Zn              -2.1808580889       -0.5345844485        5.6551138586
Zn              -3.4264710653        4.5742683521        5.6218156375
Zn               3.8386310000        3.6244170000        1.1977640000    0   0   0
Zn               2.6027020000        8.7049670000        1.1977640000    0   0   0
Zn              -0.1953533481        2.6469957909        3.4554140856
Zn              -1.4702310883        7.7122353770        3.4686879696
Zn              -2.9268383621        1.9931285869        5.8412421488
Zn              -4.0236032190        7.1009400438        5.6666432233
Zn               1.6915200000        0.4114910000        0.8555450000    0   0   0
Zn               0.4555910000        5.4920410000        0.8555450000    0   0   0
Zn              -2.2550254277       -0.5424942325        2.8687119155
Zn              -3.5008182979        4.5297083171        2.8561801811
Zn              -6.1159366673       -1.4942351016        4.4766781157
Zn              -7.3668431942        3.5796449546        4.4701353762
Zn               1.0735560000        2.9517660000        0.8555450000    0   0   0
Zn              -0.1623740000        8.0323160000        0.8555450000    0   0   0
Zn              -2.8266160871        2.0078614392        2.9449977071
Zn              -4.1083598836        7.0743588616        2.8713598341
Zn              -6.7409543964        1.0478877189        4.4539263615
Zn              -7.9820321312        6.1249264882        4.4837434615
Zn               7.2216720000        0.4114910000        0.8555450000    0   0   0
Zn               5.9857420000        5.4920410000        0.8555450000    0   0   0
Zn               2.9744017117       -0.6297175902        2.9327959622
Zn               1.7769253398        4.4731319953        2.8919055793
Zn               0.3278564230       -1.2489771443        5.8092723208
Zn              -0.9974337226        3.7904738936        5.7852085038
Zn               6.6037070000        2.9517660000        0.8555450000    0   0   0
Zn               5.3677780000        8.0323160000        0.8555450000    0   0   0
Zn               2.3841700839        1.9207772422        2.8931971636
Zn               1.1263626402        7.0020040665        2.9392080531
Zn              -0.3816196189        1.2899478714        5.7849734510
Zn              -1.5221798695        6.3609978693        5.8044353036
C               -8.6765368433        4.8381372205        8.9565956310
C               -7.5237166563        4.0259304706        8.7467145441
C               -7.6434057817        2.6311238188        8.5843825404
C               -6.2509762639        4.6207999296        8.6630664021
C               -6.5133019944        1.8549316795        8.3433043585
C               -5.1263167754        3.8390735205        8.4398279572
C               -5.2425751418        2.4474548278        8.2840280083
N               -9.6244435875        5.5064568296        9.1005245772
N               -4.0960122191        1.6788705181        8.0040037602
H               -3.2767127530        1.9336948629        8.5533168931
H               -4.2534898561        0.6735061327        8.0322685470
H               -6.1543340602        5.7017775049        8.7630321571
H               -8.6266122396        2.1626900745        8.6472009882
H               -4.1431509722        4.3089613698        8.3764744977
H               -6.6244940769        0.7783754352        8.2049238439

K_POINTS automatic 
  3 3 1  0 0 0  

