&CONTROL
  calculation = 'relax'    
  restart_mode ='from_scratch' 
  prefix = 'Zn002_3layer_aniline_relax'  
  outdir = './tmp'       
  pseudo_dir = '/home/yongsang/Research/PSID_server_room/qe/[00]QE/qepseudo/SSSP_1.3.0_PBE_efficiency' 
  tprnfor = .true.        
  tstress = .true.       
  verbosity = 'high'      
  etot_conv_thr = 5.0e-5  
  forc_conv_thr =  1.0e-3
  max_seconds   =  1.72800e+06
  nstep         = 300          
/

&SYSTEM
  ibrav = 0           
  nat = 62            
  ntyp = 4            
  ecutwfc = 40.0
  ecutrho = 280.0    
  occupations = 'smearing'
  smearing = 'mv'     
  nosym = .TRUE.
  degauss = 0.02      
  vdw_corr='grimme-d3'
/

&ELECTRONS
  conv_thr = 1e-6        
  electron_maxstep = 200
  mixing_beta = 0.4   
  diagonalization = 'david'  
  startingwfc = "atomic+random"
  startingpot = "atomic"
/

&IONS
  ion_dynamics = 'bfgs' 
/

&CELL
  cell_dofree = 'all'   
/

ATOMIC_SPECIES
  Zn  65.38  Zn_pbe_v1.uspp.F.UPF  
  N      14.00674  N.pbe-n-radius_5.UPF
  C      12.01070  C.pbe-n-kjpaw_psl.1.0.0.UPF
  H       1.00794  H.pbe-rrkjus_psl.1.0.0.UPF

CELL_PARAMETERS (angstrom) 
       10.4574394226         0.0000000000         0.0000000000
       -5.2287197113         9.0564081985         0.0000000000
        0.0000000000         0.0000000000        23.7463226318

ATOMIC_POSITIONS (angstrom)
Zn               0.0000000000        1.5094010000        1.2182900000    0   0   0
Zn               5.2287200000        1.5094010000        1.2182900000    0   0   0
Zn               0.0002640120        1.5084278076        6.0007501552
Zn               5.2277218855        1.5117951902        6.0040775389
Zn              -1.3071800000        3.7735030000        1.2182900000    0   0   0
Zn               3.9215400000        3.7735030000        1.2182900000    0   0   0
Zn              -1.3114123687        3.7733208971        6.0003224100
Zn               3.9186446980        3.7776044197        6.0104448157
Zn              -2.6143600000        6.0376050000        1.2182900000    0   0   0
Zn               2.6143600000        6.0376050000        1.2182900000    0   0   0
Zn              -2.6175908662        6.0364931017        5.9991906236
Zn               2.6170017340        6.0351341820        5.9746597123
Zn              -3.9215400000        8.3017080000        1.2182900000    0   0   0
Zn               1.3071800000        8.3017080000        1.2182900000    0   0   0
Zn              -3.9215370745        8.2989668580        6.0020165281
Zn               1.3083966985        8.2968130406        6.0115589766
Zn               2.6143600000        1.5094010000        1.2182900000    0   0   0
Zn               7.8430800000        1.5094010000        1.2182900000    0   0   0
Zn               2.6121209433        1.5084025634        6.0023644575
Zn               7.8433355856        1.5124583561        6.0055037573
Zn               1.3071800000        3.7735030000        1.2182900000    0   0   0
Zn               6.5359000000        3.7735030000        1.2182900000    0   0   0
Zn               1.3096317059        3.7758150938        6.0381467669
Zn               6.5367257032        3.7753971778        6.0035854090
Zn               0.0000000000        6.0376050000        1.2182900000    0   0   0
Zn               5.2287200000        6.0376050000        1.2182900000    0   0   0
Zn               0.0008161286        6.0352508666        6.0452042663
Zn               5.2292156024        6.0361620147        6.0554457708
Zn              -1.3071800000        8.3017080000        1.2182900000    0   0   0
Zn               3.9215400000        8.3017080000        1.2182900000    0   0   0
Zn              -1.3124348528        8.2993564075        6.0020202837
Zn               3.9233052477        8.2988747289        6.0476084826
Zn               1.3051473982        0.7490347194        3.5997776216
Zn               6.5391322580        0.7587279376        3.5947946210
Zn              -0.0077424668        3.0174025902        3.6052182770
Zn               5.2331040525        3.0275951473        3.5960694349
Zn              -1.3201769136        5.2798674192        3.6073058781
Zn               3.9297770049        5.2813947451        3.5927154564
Zn              -2.6210875278        7.5386701460        3.6032016881
Zn               2.6184861883        7.5457007381        3.5922661821
Zn               3.9191937022        0.7546334160        3.5888282109
Zn               9.1488381550        0.7543994906        3.6012196050
Zn               2.6169715549        3.0250341355        3.5900403063
Zn               7.8411488300        3.0271375965        3.5941890025
Zn               1.3088011944        5.2818660128        3.5919528536
Zn               6.5352399597        5.2813663990        3.6048479384
Zn              -0.0009543866        7.5410048526        3.5922316480
Zn               5.2287269806        7.5370283483        3.6029133972
C                2.7194238486        6.1311862340       10.9319457166
C                2.2180864837        7.2558285854       13.0410640388
C                2.2038259925        7.2363772630       11.6439130956
C                3.2384527048        5.0572586275       13.0630560275
C                3.2227124070        5.0376641537       11.6664755424
C                2.7297042191        6.1654474449       13.7626980453
N                2.7194742749        6.1191719510        9.5556013794
H                3.0524446989        5.3174789062        9.0395885901
H                1.8171460732        8.1393809763       13.5672153695
H                3.6411972647        4.1865204451       13.6077651511
H                3.6177105721        4.1769315778       11.1184544112
H                2.7382173576        6.1804643370       14.8575297108
H                1.8124274466        8.0861194612       11.0788438690
H                2.3306136192        6.8823690085        9.0246403135

K_POINTS automatic 
  2 2 1  0 0 0  

