&CONTROL
  calculation = 'relax'    
  restart_mode ='from_scratch' 
  prefix = 'Zn002_2x2x4_relax_ecutrho250_ecutwfc25'  
  outdir = './tmp'       
  pseudo_dir = '/home/ys/qepseudo/SSSP_1.3.0_PBE_efficiency' 
  tprnfor = .true.        
  tstress = .true.       
  verbosity = 'high'      
  etot_conv_thr = 1.0e-5  
  forc_conv_thr =  5.0e-4 
  max_seconds   =  1.72800e+05 
  nstep         = 100          
/

&SYSTEM
  ibrav = 0           
  nat = 32            
  ntyp = 1            
  ecutwfc = 30.0     
  ecutrho = 120.0    
  occupations = 'smearing'
  smearing = 'mv'     
  nosym = .TRUE.
  degauss = 0.02      
/

&ELECTRONS
  conv_thr = 7.35e-7        
  electron_maxstep = 200
  mixing_beta = 0.7   
  diagonalization = 'david'  
  startingwfc = "atomic+random"
  startingpot = "atomic"
/

&IONS
  ion_dynamics = 'bfgs' 
/

&CELL
  cell_dofree = 'all'   
/

ATOMIC_SPECIES
  Zn  65.38  Zn_pbe_v1.uspp.F.UPF  

CELL_PARAMETERS (angstrom) 
   5.2287197113         0.0000000000         0.0000000000
  -2.6143598557         4.5282040993         0.0000000000
   0.0000000000         0.0000000000         23.7463216782

ATOMIC_POSITIONS (angstrom)  
 Zn  -0.000000013  1.509401374  1.218290210  0 0 0
 Zn  -0.000000013  1.509401374  3.654870630  0 0 0
 Zn  -0.000000013  1.509401374  6.091451049  0 0 1
 Zn  -0.000000013  1.509401374  8.528031469  0 0 1
 Zn  -1.307179941  3.773503424  1.218290210  0 0 0
 Zn  -1.307179941  3.773503424  3.654870630  0 0 0
 Zn  -1.307179941  3.773503424  6.091451049  0 0 1
 Zn  -1.307179941  3.773503424  8.528031469  0 0 1
 Zn  2.614359843  1.509401374  1.218290210  0 0 0
 Zn  2.614359843  1.509401374  3.654870630  0 0 0
 Zn  2.614359843  1.509401374  6.091451049  0 0 1
 Zn  2.614359843  1.509401374  8.528031469  0 0 1
 Zn  1.307179915  3.773503424  1.218290210  0 0 0
 Zn  1.307179915  3.773503424  3.654870630  0 0 0
 Zn  1.307179915  3.773503424  6.091451049  0 0 1
 Zn  1.307179915  3.773503424  8.528031469  0 0 1
 Zn  1.307179941  0.754700676  1.218290210  0 0 0
 Zn  1.307179941  0.754700676  3.654870630  0 0 0
 Zn  1.307179941  0.754700676  6.091451049  0 0 1
 Zn  1.307179941  0.754700676  8.528031469  0 0 1
 Zn  0.000000013  3.018802726  1.218290210  0 0 0
 Zn  0.000000013  3.018802726  3.654870630  0 0 0
 Zn  0.000000013  3.018802726  6.091451049  0 0 1
 Zn  0.000000013  3.018802726  8.528031469  0 0 1
 Zn  3.921539797  0.754700676  1.218290210  0 0 0
 Zn  3.921539797  0.754700676  3.654870630  0 0 0
 Zn  3.921539797  0.754700676  6.091451049  0 0 1
 Zn  3.921539797  0.754700676  8.528031469  0 0 1
 Zn  2.614359869  3.018802726  1.218290210  0 0 0
 Zn  2.614359869  3.018802726  3.654870630  0 0 0
 Zn  2.614359869  3.018802726  6.091451049  0 0 1
 Zn  2.614359869  3.018802726  8.528031469  0 0 1

K_POINTS automatic 
  3 3 1  0 0 0  

