&CONTROL
  calculation = 'relax'    
  restart_mode = 'from_scratch' 
  prefix = 'Zn002_2x2x4_relax_ecutrho250_ecutwfc25'  
  outdir = './tmp'       
  pseudo_dir = '/home/ys/qepseudo/SSSP_1.3.0_PBE_efficiency' 
  tprnfor = .true.        
  tstress = .true.       
  verbosity = 'high'      
  etot_conv_thr = 1.0e-5  
  forc_conv_thr =  5.0e-4 

  max_seconds   =  1.72800e+05 
  nstep         = 100          
/

&SYSTEM
  ibrav = 0           
  nat = 32            
  ntyp = 1            
  ecutwfc = 30.0     
  ecutrho = 120.0    
  occupations = 'smearing'
  smearing = 'mv'     
  degauss = 0.02      
  nosym = .TRUE.
/

&ELECTRONS
  conv_thr = 7.35e-7        
  electron_maxstep = 200
  mixing_beta = 0.7   
  diagonalization = 'david'  
  startingwfc = "atomic+random"
  startingpot = "atomic"
/

&IONS
  ion_dynamics = 'bfgs' 
/

&CELL
  cell_dofree = 'all'   
/

ATOMIC_SPECIES
  Zn  65.38  Zn_pbe_v1.uspp.F.UPF  

CELL_PARAMETERS (angstrom) 
   11.0603027344         0.0000000000         0.0000000000
   -1.2359294312         5.0805499959         0.0000000000
  -46.45602384          -11.30121092          22.2132353415

ATOMIC_POSITIONS (angstrom)  
  Zn  -1.073555657  1.084142236  1.197763569  0 0 0
  Zn  -5.367777671  0.039500342  3.251072404  0 0 0
  Zn  -9.661999684  -1.005141552  5.304381240  0 0 1
  Zn  -13.956221698  -2.049783446  7.357690075  0 0 1
  Zn  -1.691520373  3.624417234  1.197763569  0 0 0
  Zn  -5.985742386  2.579775340  3.251072404  0 0 0
  Zn  -10.279964400  1.535133446  5.304381240  0 0 1
  Zn  -14.574186414  0.490491552  7.357690075  0 0 1
  Zn  4.456595710  1.084142236  1.197763569  0 0 0
  Zn  0.162373696  0.039500342  3.251072404  0 0 0
  Zn  -4.131848317  -1.005141552  5.304381240  0 0 1
  Zn  -8.426070331  -2.049783446  7.357690075  0 0 1
  Zn  3.838630995  3.624417234  1.197763569  0 0 0
  Zn  -0.455591019  2.579775340  3.251072404  0 0 0
  Zn  -4.749813033  1.535133446  5.304381240  0 0 1
  Zn  -9.044035047  0.490491552  7.357690075  0 0 1
  Zn  1.691520295  0.411490868  0.855545266  0 0 0
  Zn  -2.602701719  -0.633151026  2.908854101  0 0 0
  Zn  -6.896923732  -1.677792920  4.962162937  0 0 1
  Zn  -11.191145746  -2.722434814  7.015471772  0 0 1
  Zn  1.073555579  2.951765866  0.855545266  0 0 0
  Zn  -3.220666434  1.907123972  2.908854101  0 0 0
  Zn  -7.514888448  0.862482078  4.962162937  0 0 1
  Zn  -11.809110462  -0.182159816  7.015471772  0 0 1
  Zn  7.221671662  0.411490868  0.855545266  0 0 0
  Zn  2.927449648  -0.633151026  2.908854101  0 0 0
  Zn  -1.366772365  -1.677792920  4.962162937  0 0 1
  Zn  -5.660994379  -2.722434814  7.015471772  0 0 1
  Zn  6.603706947  2.951765866  0.855545266  0 0 0
  Zn  2.309484933  1.907123972  2.908854101  0 0 0
  Zn  -1.984737081  0.862482078  4.962162937  0 0 1
  Zn  -6.278959095  -0.182159816  7.015471772  0 0 1

K_POINTS automatic 
  3 3 1  0 0 0  

