&CONTROL
  calculation = 'relax'    
  restart_mode ='from_scratch' 
  prefix = 'Zn002_3layer_ABN_relax'  
  outdir = './tmp'       
  pseudo_dir = '/home/ys/qepseudo/SSSP_1.3.0_PBE_efficiency' 
  tprnfor = .true.        
  tstress = .true.       
  verbosity = 'high'      
  etot_conv_thr = 1.0e-5  
  forc_conv_thr =  5.0e-4 
  max_seconds   =  1.72800e+05 
  nstep         = 100          
/

&SYSTEM
  ibrav = 0           
  nat = 63            
  ntyp = 4            
  ecutwfc = 40.0
  ecutrho = 280.0    
  occupations = 'smearing'
  smearing = 'mv'     
  nosym = .TRUE.
  degauss = 0.02      
/

&ELECTRONS
  conv_thr = 1e-6        
  electron_maxstep = 200
  mixing_beta = 0.4   
  diagonalization = 'david'  
  startingwfc = "atomic+random"
  startingpot = "atomic"
/

&IONS
  ion_dynamics = 'bfgs' 
/

&CELL
  cell_dofree = 'all'   
/

ATOMIC_SPECIES
  Zn  65.38  Zn_pbe_v1.uspp.F.UPF  
  N      14.00674  N.pbe-n-radius_5.UPF
  C      12.01070  C.pbe-n-kjpaw_psl.1.0.0.UPF
  H       1.00794  H.pbe-rrkjus_psl.1.0.0.UPF

CELL_PARAMETERS (angstrom) 
       10.4574394226         0.0000000000         0.0000000000
       -5.2287197113         9.0564081985         0.0000000000
        0.0000000000         0.0000000000        23.7463226318

ATOMIC_POSITIONS (angstrom)  
Zn       0.0000000000      1.5094010000      1.2182900000  0 0 0
Zn       5.2287200000      1.5094010000      1.2182900000  0 0 0
Zn       0.0000083671      1.5093082907      6.2711362027  1 1 1
Zn       5.2286786630      1.5096736463      6.2703770333  1 1 1
Zn      -1.3071800000      3.7735030000      1.2182900000  0 0 0
Zn       3.9215400000      3.7735030000      1.2182900000  0 0 0
Zn      -1.3071945527      3.7734258802      6.2699791334  1 1 1
Zn       3.9216523053      3.7736950076      6.2691220292  1 1 1
Zn      -2.6143600000      6.0376050000      1.2182900000  0 0 0
Zn       2.6143600000      6.0376050000      1.2182900000  0 0 0
Zn      -2.6146641068      6.0375486519      6.2688155306  1 1 1
Zn       2.6146719854      6.0375031384      6.2699707118  1 1 1
Zn      -3.9215400000      8.3017080000      1.2182900000  0 0 0
Zn       1.3071800000      8.3017080000      1.2182900000  0 0 0
Zn      -3.9217404835      8.3016417432      6.2698588491  1 1 1
Zn       1.3073998022      8.3016867062      6.2712454969  1 1 1
Zn       2.6143600000      1.5094010000      1.2182900000  0 0 0
Zn       7.8430800000      1.5094010000      1.2182900000  0 0 0
Zn       2.6141585806      1.5094203260      6.2713434685  1 1 1
Zn       7.8432840445      1.5094989746      6.2700910950  1 1 1
Zn       1.3071800000      3.7735030000      1.2182900000  0 0 0
Zn       6.5359000000      3.7735030000      1.2182900000  0 0 0
Zn       1.3071463999      3.7733956756      6.2711848945  1 1 1
Zn       6.5357882690      3.7737291653      6.2678937027  1 1 1
Zn       0.0000000000      6.0376050000      1.2182900000  0 0 0
Zn       5.2287200000      6.0376050000      1.2182900000  0 0 0
Zn      -0.0000503788      6.0373779022      6.2711289012  1 1 1
Zn       5.2287491894      6.0375923967      6.2676854343  1 1 1
Zn      -1.3071800000      8.3017080000      1.2182900000  0 0 0
Zn       3.9215400000      8.3017080000      1.2182900000  0 0 0
Zn      -1.3075029033      8.3016903564      6.2712264175  1 1 1
Zn       3.9218106186      8.3016531144      6.2698379086  1 1 1
Zn       1.3069625244      0.7547404259      3.7452189567  1 1 1
Zn       6.5361427627      0.7552566399      3.7448596920  1 1 1
Zn       0.0000444275      3.0184441082      3.7452148026  1 1 1
Zn       5.2286912724      3.0192977478      3.7442763065  1 1 1
Zn      -1.3075645426      5.2824612854      3.7445086005  1 1 1
Zn       3.9219746363      5.2827363382      3.7439818702  1 1 1
Zn      -2.6149930138      7.5471064638      3.7445048585  1 1 1
Zn       2.6150670849      7.5469612089      3.7446199862  1 1 1
Zn       3.9210750037      0.7551138993      3.7452579080  1 1 1
Zn       9.1506859304      0.7548047517      3.7448112957  1 1 1
Zn       2.6144137321      3.0187788393      3.7451303392  1 1 1
Zn       7.8430359075      3.0189051047      3.7442459427  1 1 1
Zn       1.3074908402      5.2823516235      3.7450085402  1 1 1
Zn       6.5355185232      5.2827978083      3.7435380897  1 1 1
Zn      -0.0001740083      7.5470136669      3.7452233033  1 1 1
Zn       5.2288282294      7.5469480756      3.7439961035  1 1 1
C        1.9163475676      4.1842167048     15.2485020177                 
C        1.8301956678      4.1410126494     13.8279675585                 
C        2.9959418841      4.0938758619     13.0378587417                 
C        0.5778731742      4.1445706602     13.1821438810                 
C        2.9137755131      4.0520814521     11.6551278334                 
C        0.4933036604      4.1027235132     11.7994590566                 
C        1.6600289958      4.0556499591     11.0055809789                 
N        1.9861475594      4.2202339217     16.4139586369                 
N        1.5777777532      4.0148816042      9.6395620426                 
H        0.6841931016      4.0188367299      9.1705720242                 
H        2.4088558214      3.9826836641      9.0678049637                 
H       -0.3326025669      4.1817073969     13.7800818273                 
H        3.9717068354      4.0914724712     13.5234017199                 
H       -0.4857419243      4.1072861928     11.3169549788                 
H        3.8280545904      4.0168555346     11.0598096970  

K_POINTS automatic 
  3 3 1  0 0 0  

