&CONTROL
  calculation = 'relax'    
  restart_mode ='from_scratch' 
  prefix = 'Zn101_3layer_relax'  
  outdir = './tmp'       
  pseudo_dir = '/home/ys/qepseudo/SSSP_1.3.0_PBE_efficiency' 
  tprnfor = .true.        
  tstress = .true.       
  verbosity = 'high'      
  etot_conv_thr = 1.0e-5  
  forc_conv_thr =  5.0e-4 
  max_seconds   =  1.72800e+05 
  nstep         = 100          
/

&SYSTEM
  ibrav = 0           
  nat = 48            
  ntyp = 1            
  ecutwfc = 40.0
  ecutrho = 280.0    
  occupations = 'smearing'
  smearing = 'mv'     
  nosym = .TRUE.
  degauss = 0.02      
  vdw_corr='grimme-d3'
/

&ELECTRONS
  conv_thr = 1e-6        
  electron_maxstep = 200
  mixing_beta = 0.4   
  diagonalization = 'david'  
  startingwfc = "atomic+random"
  startingpot = "atomic"
/

&IONS
  ion_dynamics = 'bfgs' 
/

&CELL
  cell_dofree = 'all'   
/

ATOMIC_SPECIES
  Zn  65.38  Zn_pbe_v1.uspp.F.UPF  

CELL_PARAMETERS (angstrom) 
       11.0603027344         0.0000000000         0.0000000000
       -2.4718588623        10.1610999917         0.0000000000
      -46.4560228483       -11.3012106837        22.2132348689

ATOMIC_POSITIONS (angstrom)  
Zn              -1.0735560000        1.0841420000        1.1977640000    0   0   0
Zn              -2.3094850000        6.1646920000        1.1977640000    0   0   0
Zn              -5.2801812083        0.0538774827        3.6027165274
Zn              -6.5164588384        5.1337924043        3.6022635650
Zn              -9.3285550591       -0.9262197657        5.8237374048
Zn             -10.5651141287        4.1543756602        5.8238774529
Zn              -1.6915200000        3.6244170000        1.1977640000    0   0   0
Zn              -2.9274500000        8.7049670000        1.1977640000    0   0   0
Zn              -5.8982111864        2.5933796794        3.6026960221
Zn              -7.1343118995        7.6747987065        3.6023048175
Zn              -9.9469211738        1.6142036855        5.8235334328
Zn             -11.1827292400        6.6946854957        5.8240607087
Zn               4.4565960000        1.0841420000        1.1977640000    0   0   0
Zn               3.2206660000        6.1646920000        1.1977640000    0   0   0
Zn               0.2526327759        0.0547605568        3.6031613083
Zn              -0.9833007727        5.1341760405        3.6027585611
Zn              -3.8004265982       -0.9265627579        5.8260199225
Zn              -5.0364041653        4.1539526946        5.8262495017
Zn               3.8386310000        3.6244170000        1.1977640000    0   0   0
Zn               2.6027020000        8.7049670000        1.1977640000    0   0   0
Zn              -0.3653213860        2.5943507026        3.6032484408
Zn              -1.6013119665        7.6753896945        3.6026825255
Zn              -4.4185226766        1.6135701638        5.8257992404
Zn              -5.6543309694        6.6944441173        5.8264314545
Zn               1.6915200000        0.4114910000        0.8555450000    0   0   0
Zn               0.4555910000        5.4920410000        0.8555450000    0   0   0
Zn              -2.5654030927       -0.6173905792        3.0396169576
Zn              -3.8011439231        4.4620480182        3.0392554777
Zn              -6.7419505289       -1.6402934503        5.2803725659
Zn              -7.9784351021        3.4399434060        5.2803838860
Zn               1.0735560000        2.9517660000        0.8555450000    0   0   0
Zn              -0.1623740000        8.0323160000        0.8555450000    0   0   0
Zn              -3.1831932548        1.9221087928        3.0399036747
Zn              -4.4193162348        7.0031963610        3.0389125303
Zn              -7.3600491186        0.8999048696        5.2802060546
Zn              -8.5962509853        5.9804358500        5.2804969214
Zn               7.2216720000        0.4114910000        0.8555450000    0   0   0
Zn               5.9857420000        5.4920410000        0.8555450000    0   0   0
Zn               2.9633670810       -0.6179790278        3.0377169179
Zn               1.7273357528        4.4619611975        3.0374724401
Zn              -1.2103304721       -1.6396747824        5.2810081161
Zn              -2.4463299993        3.4404890997        5.2811132384
Zn               6.6037070000        2.9517660000        0.8555450000    0   0   0
Zn               5.3677780000        8.0323160000        0.8555450000    0   0   0
Zn               2.3453668605        1.9218528905        3.0379714302
Zn               1.1094855975        7.0025358585        3.0372129758
Zn              -1.8284803479        0.9002593216        5.2808861109
Zn              -3.0640127365        5.9808257668        5.2811972762

K_POINTS automatic 
  3 3 1  0 0 0  

