&CONTROL
  calculation = 'relax'    
  restart_mode ='from_scratch' 
  prefix = 'Zn002_3layer_aniline_relax'  
  outdir = './tmp'       
  pseudo_dir = '/home/yongsang/Research/PSID_server_room/qe/[00]QE/qepseudo/SSSP_1.3.0_PBE_efficiency' 
  tprnfor = .true.        
  tstress = .true.       
  verbosity = 'high'      
  etot_conv_thr = 5.0e-5  
  forc_conv_thr =  1.0e-3
  max_seconds   =  1.72800e+06
  nstep         = 300          
/

&SYSTEM
  ibrav = 0           
  nat = 62            
  ntyp = 4            
  ecutwfc = 40.0
  ecutrho = 280.0    
  occupations = 'smearing'
  smearing = 'mv'     
  nosym = .TRUE.
  degauss = 0.02      
  vdw_corr='grimme-d3'
/

&ELECTRONS
  conv_thr = 1e-6        
  electron_maxstep = 200
  mixing_beta = 0.4   
  diagonalization = 'david'  
  startingwfc = "atomic+random"
  startingpot = "atomic"
/

&IONS
  ion_dynamics = 'bfgs' 
/

&CELL
  cell_dofree = 'all'   
/

ATOMIC_SPECIES
  Zn  65.38  Zn_pbe_v1.uspp.F.UPF  
  N      14.00674  N.pbe-n-radius_5.UPF
  C      12.01070  C.pbe-n-kjpaw_psl.1.0.0.UPF
  H       1.00794  H.pbe-rrkjus_psl.1.0.0.UPF

CELL_PARAMETERS (angstrom) 
       10.4574394226         0.0000000000         0.0000000000
       -5.2287197113         9.0564081985         0.0000000000
        0.0000000000         0.0000000000        23.7463226318

ATOMIC_POSITIONS (angstrom)
Zn               0.0000000000        1.5094010000        1.2182900000    0   0   0
Zn               5.2287200000        1.5094010000        1.2182900000    0   0   0
Zn              -0.0005864020        1.5078862677        5.9548818743
Zn               5.2278703956        1.5081461845        5.9516828445
Zn              -1.3071800000        3.7735030000        1.2182900000    0   0   0
Zn               3.9215400000        3.7735030000        1.2182900000    0   0   0
Zn              -1.3045247336        3.7739012948        5.9549472102
Zn               3.9203743503        3.7726739225        5.9570087037
Zn              -2.6143600000        6.0376050000        1.2182900000    0   0   0
Zn               2.6143600000        6.0376050000        1.2182900000    0   0   0
Zn              -2.6155724125        6.0371767917        5.9551259309
Zn               2.6135145079        6.0373341851        5.9324256552
Zn              -3.9215400000        8.3017080000        1.2182900000    0   0   0
Zn               1.3071800000        8.3017080000        1.2182900000    0   0   0
Zn              -3.9252188789        8.2999875050        5.9551897730
Zn               1.3066459804        8.3005827814        5.9577928772
Zn               2.6143600000        1.5094010000        1.2182900000    0   0   0
Zn               7.8430800000        1.5094010000        1.2182900000    0   0   0
Zn               2.6140339186        1.5088497628        5.9528569240
Zn               7.8431166114        1.5067830378        5.9526007610
Zn               1.3071800000        3.7735030000        1.2182900000    0   0   0
Zn               6.5359000000        3.7735030000        1.2182900000    0   0   0
Zn               1.3073711883        3.7725006002        5.9616552071
Zn               6.5337090394        3.7738619578        5.9528915697
Zn               0.0000000000        6.0376050000        1.2182900000    0   0   0
Zn               5.2287200000        6.0376050000        1.2182900000    0   0   0
Zn               0.0003487807        6.0376490435        5.9620303986
Zn               5.2251588967        6.0370066815        5.9736215662
Zn              -1.3071800000        8.3017080000        1.2182900000    0   0   0
Zn               3.9215400000        8.3017080000        1.2182900000    0   0   0
Zn              -1.3066429010        8.3014300797        5.9534099072
Zn               3.9195715461        8.2992592916        5.9706737119
Zn               1.3049895838        0.7533227775        3.5850470209
Zn               6.5351754366        0.7536266466        3.5850989234
Zn               0.0000455044        3.0190782728        3.5826050967
Zn               5.2280459270        3.0183585504        3.5844492258
Zn              -1.3066444430        5.2825542058        3.5821183699
Zn               3.9232055161        5.2823387955        3.5842109231
Zn              -2.6159866411        7.5452622662        3.5849784114
Zn               2.6145161746        7.5480159359        3.5835019697
Zn               3.9223937450        0.7544041429        3.5837672106
Zn               9.1503802225        0.7529165768        3.5847008107
Zn               2.6138705994        3.0188626793        3.5866025451
Zn               7.8427056944        3.0183970059        3.5874213495
Zn               1.3042634047        5.2812525308        3.5879814366
Zn               6.5344194093        5.2833426390        3.5834417762
Zn              -0.0000371497        7.5459808101        3.5871147204
Zn               5.2278993018        7.5460932595        3.5873720210
C                2.7653066150        6.1548563519       10.8881129046
C                2.2128957164        7.2450008009       12.9925257609
C                2.2288417721        7.2445722913       11.5966380894
C                3.2223010195        5.0621585598       13.0137605508
C                3.2421083327        5.0519395617       11.6179874975
C                2.7221122852        6.1627804356       13.7134807701
N                2.8932969755        6.1991365334        9.4905510578
H                2.9387466747        5.2914145470        9.0338475253
H                1.8067167929        8.1094243796       13.5214696748
H                3.6149017671        4.2021388714       13.5593056898
H                3.6406530879        4.1826038665       11.0875509408
H                2.7284789428        6.1761328353       14.8036237130
H                1.8260327497        8.1011933654       11.0491274623
H                2.2365538811        6.8145994559        9.0168530522

K_POINTS automatic 
  3 3 1  0 0 0  

