&CONTROL
  calculation = 'relax'    
  restart_mode ='restart' 
  prefix = '02_Zn002_topsite_lean'  
  outdir = './tmp'       
  pseudo_dir = '/home/yongsang/Research/PSID_server_room/qe/[00]QE/qepseudo/SSSP_1.3.0_PBE_efficiency' 
  tprnfor = .true.        
  tstress = .true.       
  verbosity = 'high'      
  etot_conv_thr = 4.0e-5  
  forc_conv_thr =  8.0e-4 
  max_seconds   =  1.72800e+06 
  nstep         = 100          
/

&SYSTEM
  ibrav = 0           
  nat = 63            
  ntyp = 4            
  ecutwfc = 40.0
  ecutrho = 280.0    
  occupations = 'smearing'
  smearing = 'mv'     
  nosym = .TRUE.
  degauss = 0.02      
  vdw_corr='grimme-d3'
  tot_charge =  1
/

&ELECTRONS
  conv_thr = 1e-6        
  electron_maxstep = 200
  mixing_beta = 0.4   
  diagonalization = 'david'  
  startingwfc = "atomic+random"
  startingpot = "atomic"
/

&IONS
  ion_dynamics = 'bfgs' 
/

&CELL
  cell_dofree = 'all'   
/

ATOMIC_SPECIES
  Zn  65.38  Zn_pbe_v1.uspp.F.UPF  
  N      14.00674  N.pbe-n-radius_5.UPF
  C      12.01070  C.pbe-n-kjpaw_psl.1.0.0.UPF
  H       1.00794  H.pbe-rrkjus_psl.1.0.0.UPF

CELL_PARAMETERS (angstrom) 
       10.4574394226         0.0000000000         0.0000000000
       -5.2287197113         9.0564081985         0.0000000000
        0.0000000000         0.0000000000        23.7463226318

ATOMIC_POSITIONS (angstrom)  
Zn       0.0000000000      1.5094010000      1.2182900000  0 0 0
Zn       5.2287200000      1.5094010000      1.2182900000  0 0 0
Zn      -0.0000096675      1.5092730247      6.1618663341  1 1 1
Zn       5.2287790263      1.5104001732      6.1630472188  1 1 1
Zn      -1.3071800000      3.7735030000      1.2182900000  0 0 0
Zn       3.9215400000      3.7735030000      1.2182900000  0 0 0
Zn      -1.3078126373      3.7740954683      6.1620670947  1 1 1
Zn       3.9222371638      3.7745875350      6.1619505094  1 1 1
Zn      -2.6143600000      6.0376050000      1.2182900000  0 0 0
Zn       2.6143600000      6.0376050000      1.2182900000  0 0 0
Zn      -2.6153311427      6.0371380931      6.1617222212  1 1 1
Zn       2.6152632692      6.0372127888      6.1624364666  1 1 1
Zn      -3.9215400000      8.3017080000      1.2182900000  0 0 0
Zn       1.3071800000      8.3017080000      1.2182900000  0 0 0
Zn      -3.9219036253      8.3005607928      6.1616166348  1 1 1
Zn       1.3075246591      8.3011586794      6.1634745442  1 1 1
Zn       2.6143600000      1.5094010000      1.2182900000  0 0 0
Zn       7.8430800000      1.5094010000      1.2182900000  0 0 0
Zn       2.6141434819      1.5095566218      6.1620232333  1 1 1
Zn       7.8432408336      1.5100700941      6.1629548570  1 1 1
Zn       1.3071800000      3.7735030000      1.2182900000  0 0 0
Zn       6.5359000000      3.7735030000      1.2182900000  0 0 0
Zn       1.3073285016      3.7739231453      6.1619126510  1 1 1
Zn       6.5356836249      3.7747558139      6.1619446658  1 1 1
Zn       0.0000000000      6.0376050000      1.2182900000  0 0 0
Zn       5.2287200000      6.0376050000      1.2182900000  0 0 0
Zn      -0.0003568690      6.0371318840      6.1626273869  1 1 1
Zn       5.2291219497      6.0371955970      6.1614378507  1 1 1
Zn      -1.3071800000      8.3017080000      1.2182900000  0 0 0
Zn       3.9215400000      8.3017080000      1.2182900000  0 0 0
Zn      -1.3079186939      8.3009478534      6.1626862803  1 1 1
Zn       3.9222592486      8.3007886782      6.1624134495  1 1 1
Zn       1.3066559796      0.7541692607      3.6891232281  1 1 1
Zn       6.5364395627      0.7558698909      3.6914293308  1 1 1
Zn      -0.0011156002      3.0194754616      3.6901825901  1 1 1
Zn       5.2298455352      3.0205522007      3.6915496156  1 1 1
Zn      -1.3086161387      5.2822921794      3.6913792096  1 1 1
Zn       3.9229761019      5.2828356165      3.6915781438  1 1 1
Zn      -2.6151656543      7.5452529770      3.6904034609  1 1 1
Zn       2.6151734470      7.5464486452      3.6913780835  1 1 1
Zn       3.9222280572      0.7552353797      3.6900687377  1 1 1
Zn       9.1495376038      0.7547754235      3.6906069044  1 1 1
Zn       2.6154190793      3.0200910937      3.6900470735  1 1 1
Zn       7.8419867936      3.0199316271      3.6917080903  1 1 1
Zn       1.3076664924      5.2830168607      3.6909997226  1 1 1
Zn       6.5354098617      5.2821432286      3.6919866497  1 1 1
Zn       0.0001364161      7.5464191588      3.6909498650  1 1 1
Zn       5.2285633792      7.5452436556      3.6907607288  1 1 1
C        3.1101555255      1.9950355161     10.1007535940                 
C        4.5026429642      1.9549933885     10.2099379381                 
C        2.4533884836      3.2182171498      9.9452683089                 
C        5.2528306331      3.1331167533     10.1704697397                 
C        3.2294518932      4.3706426449      9.9069686720                 
C        4.6148020494      4.3662954823     10.0167922892                 
N        2.5386304124      5.6816643736      9.7039524191                 
H        2.5275251346      1.0751603038     10.1364125540                 
H        5.0077519638      0.9966575758     10.3295565347                 
H        1.6020995752      5.6771592439     10.1331355789                 
H        1.3654543556      3.2568811155      9.8589168698                 
H        6.3379942081      3.0989289245     10.2611232986                 
H        3.0735638971      6.4515079905     10.1309224091                 
H        5.1952864338      5.2909174958      9.9858675168                 
H        2.4217583115      5.9010556103      8.7024216021    

K_POINTS automatic 
  3 3 1  0 0 0  

