&CONTROL
  calculation = 'relax'    
  restart_mode ='from_scratch' 
  prefix = '02_Zn101_ABN_topsite_upright'  
  outdir = './tmp'       
  pseudo_dir = '/home/yongsang/Research/PSID_server_room/qe/[00]QE/qepseudo/SSSP_1.3.0_PBE_efficiency' 
  tprnfor = .true.        
  tstress = .true.       
  verbosity = 'high'      
  etot_conv_thr = 1.0e-5  
  forc_conv_thr =  5.0e-4 
  max_seconds   =  1.72800e+06
  nstep         = 500          
/

&SYSTEM
  ibrav = 0           
  nat = 63       
  ntyp = 4
  ecutwfc = 40.0
  ecutrho = 280.0    
  occupations = 'smearing'
  smearing = 'mv'     
  nosym = .TRUE.
  degauss = 0.02      
  vdw_corr='grimme-d3'
/

&ELECTRONS
  conv_thr = 1e-6        
  electron_maxstep = 200
  mixing_beta = 0.4   
  diagonalization = 'david'  
  startingwfc = "atomic+random"
  startingpot = "atomic"
/

&IONS
  ion_dynamics = 'bfgs' 
/

&CELL
  cell_dofree = 'all'   
/

ATOMIC_SPECIES
  Zn  65.38  Zn_pbe_v1.uspp.F.UPF  
  N      14.00674  N.pbe-n-radius_5.UPF
  C      12.01070  C.pbe-n-kjpaw_psl.1.0.0.UPF
  H       1.00794  H.pbe-rrkjus_psl.1.0.0.UPF

CELL_PARAMETERS (angstrom) 
       11.0603027344         0.0000000000         0.0000000000
       -2.4718588623        10.1610999917         0.0000000000
      -46.4560228483       -11.3012106837        22.2132348689
        
ATOMIC_POSITIONS (angstrom)
Zn              -1.0735560000        1.0841420000        1.1977640000    0   0   0
Zn              -2.3094850000        6.1646920000        1.1977640000    0   0   0
Zn              -4.2347012627        0.2978092246        4.3408030671
Zn              -5.4677005387        5.3825711055        4.3441205446
Zn              -8.1679002768       -0.6737362236        5.8275200275
Zn              -9.3887203829        4.4046619057        5.7745747057
Zn              -1.6915200000        3.6244170000        1.1977640000    0   0   0
Zn              -2.9274500000        8.7049670000        1.1977640000    0   0   0
Zn              -4.8512497793        2.8365805801        4.3455100330
Zn              -6.0867829483        7.9222117929        4.3392267667
Zn              -8.7833401323        1.8670871587        5.8230631789
Zn             -10.0221027749        6.9436745272        5.8210370691
Zn               4.4565960000        1.0841420000        1.1977640000    0   0   0
Zn               3.2206660000        6.1646920000        1.1977640000    0   0   0
Zn               0.4002895609        0.0803047151        3.4880204306
Zn              -0.8378899800        5.1647018798        3.4741421545
Zn              -2.0770118610       -0.5181593110        5.6598337749
Zn              -3.3144922124        4.5616899316        5.6620430093
Zn               3.8386310000        3.6244170000        1.1977640000    0   0   0
Zn               2.6027020000        8.7049670000        1.1977640000    0   0   0
Zn              -0.2186770462        2.6188071424        3.4800506737
Zn              -1.4547896434        7.7012827780        3.4796782794
Zn              -2.6988433580        2.0205582039        5.6619293705
Zn              -3.9280952931        7.1002055690        5.6616301233
Zn               1.6915200000        0.4114910000        0.8555450000    0   0   0
Zn               0.4555910000        5.4920410000        0.8555450000    0   0   0
Zn              -2.2426926941       -0.5486686062        2.8624805856
Zn              -3.4755035465        4.5305624079        2.8675839536
Zn              -6.0664045550       -1.4952054981        4.3944311398
Zn              -7.2916753612        3.5844908910        4.3764808327
Zn               1.0735560000        2.9517660000        0.8555450000    0   0   0
Zn              -0.1623740000        8.0323160000        0.8555450000    0   0   0
Zn              -2.8617992782        1.9900537209        2.8637392138
Zn              -4.0944461578        7.0718049817        2.8664890625
Zn              -6.6814802792        1.0414326460        4.3971219201
Zn              -7.9129842099        6.1334131533        4.3771271264
Zn               7.2216720000        0.4114910000        0.8555450000    0   0   0
Zn               5.9857420000        5.4920410000        0.8555450000    0   0   0
Zn               2.9739966463       -0.6328222953        2.9290815191
Zn               1.7437633362        4.4478844608        2.9169673508
Zn               0.4107914408       -1.2574091263        5.8384842797
Zn              -0.8257034735        3.8266080474        5.8131387138
Zn               6.6037070000        2.9517660000        0.8555450000    0   0   0
Zn               5.3677780000        8.0323160000        0.8555450000    0   0   0
Zn               2.3557846236        1.9043394336        2.9335478414
Zn               1.1214780237        6.9904022541        2.9312458323
Zn              -0.2085774981        1.2895819305        5.8405781678
Zn              -1.4378493980        6.3608540196        5.8452007743
C              -10.6228374869        4.8683822468       14.5304667253
C              -10.4920345887        4.7514505029       13.1170837830
C              -10.7614855123        5.8508042488       12.2778491735
C              -10.1087777042        3.5289395751       12.5305431855
C              -10.6570384473        5.7302401879       10.9010071293
C              -10.0070388100        3.4072528032       11.1537108078
C              -10.2890655068        4.5026115693       10.3091088783
N              -10.7347790950        4.9632621655       15.6891557613
N              -10.1771916858        4.3873858630        8.9428186405
H              -10.1616103788        3.4616233108        8.5260833780
H              -10.6123038181        5.0887760154        8.3491344984
H               -9.8990383462        2.6715441229       13.1706355425
H              -11.0579295236        6.8023835864       12.7198026433
H               -9.7069417485        2.4540500523       10.7143892568
H              -10.8692850866        6.5892244666       10.2621453152

K_POINTS automatic 
  3 3 1  0 0 0  

