&CONTROL
  calculation = 'scf'    
  max_seconds = 1.72800e+05 
  pseudo_dir = '/home/ys/qepseudo/SSSP_1.3.0_PBE_efficiency' 
  outdir = './tmp'
  restart_mode = 'restart' 
  prefix = 'H2O'  
  tprnfor = .true.        
  tstress = .true.       
  verbosity = 'high' 
/

&SYSTEM
    a           =  1.50000e+01
    ecutwfc = 30.0     
    ecutrho = 120.0   
    ibrav       = 1
    nat         = 3
    ntyp        = 2
    occupations = 'smearing'
    smearing = 'mv'     
    degauss = 0.02      
    nosym = .TRUE.
/

&ELECTRONS
  conv_thr = 1e-8
  electron_maxstep = 200
  mixing_beta = 0.7   
  diagonalization = 'david'  
  startingwfc = "atomic+random"
  startingpot = "atomic"
/

K_POINTS {gamma} 

ATOMIC_SPECIES
O      15.99940  O.pbe-n-kjpaw_psl.0.1.UPF
H       1.00794  H.pbe-rrkjus_psl.1.0.0.UPF

ATOMIC_POSITIONS {angstrom}
O 0.4246869187 1.0020758814 1.1777118336
H 1.4020278148 0.9784792348 1.1357448639
H 0.1444752665 0.5401498838 0.3617763026
