&CONTROL
  calculation = 'relax'    
  restart_mode = 'restart' 
  prefix = 'Zn101_2x4x4_primitive_atoms32_14Avacumn_ABN_topsite_upright'  
  outdir = './tmp'       
  pseudo_dir = '/home/ys/qepseudo/SSSP_1.3.0_PBE_efficiency' 
  tprnfor = .true.        
  tstress = .true.       
  verbosity = 'high'      
  etot_conv_thr = 1.0e-5  
  forc_conv_thr =  5.0e-4 

  max_seconds   =  1.72800e+05 
  nstep         = 100          
/

&SYSTEM
  ibrav = 0           
  nat = 79            
  ntyp = 4            
  ecutwfc = 30.0     
  ecutrho = 120.0    
  occupations = 'smearing'
  smearing = 'mv'     
  degauss = 0.02      
  nosym = .TRUE.
/

&ELECTRONS
  conv_thr = 7.35e-7        
  electron_maxstep = 200
  mixing_beta = 0.7   
  diagonalization = 'david'  
  startingwfc = "atomic+random"
  startingpot = "atomic"
/

&IONS
  ion_dynamics = 'bfgs' 
/

&CELL
  cell_dofree = 'all'   
/

ATOMIC_SPECIES
  Zn  65.38  Zn_pbe_v1.uspp.F.UPF  
  C  12.0107   C.pbe-n-kjpaw_psl.1.0.0.UPF  
  N  14.0067   N.pbe-n-radius_5.UPF  
  H  1.008   H.pbe-rrkjus_psl.1.0.0.UPF  

CELL_PARAMETERS (angstrom) 
       11.0603027344         0.0000000000         0.0000000000
       -2.4718588623        10.1610999917         0.0000000000
      -46.4560228483       -11.3012106837        22.2132348689

ATOMIC_POSITIONS (angstrom)  
Zn -1.0735556040 1.0841422490 1.1977635440  0 0 0
Zn -2.3094850350 6.1646922450 1.1977635440  0 0 0
Zn -5.3677775260 0.0395003770 3.2510723350  0 0 0
Zn -6.6037069570 5.1200503720 3.2510723350  0 0 0
Zn -9.4912283929 -0.9834870649 5.4650633643  1 1 1
Zn -10.7277645886 4.0976481237 5.4649910470  1 1 1
Zn -13.5358372262 -1.9597266219 7.6144901586  1 1 1
Zn -14.7683322236 3.1228133351 7.6256745880  1 1 1
Zn -1.6915203190 3.6244172470 1.1977635440  0 0 0
Zn -2.9274497510 8.7049672430 1.1977635440  0 0 0
Zn -5.9857422410 2.5797753750 3.2510723350  0 0 0
Zn -7.2216716720 7.6603253700 3.2510723350  0 0 0
Zn -10.1123806598 1.5557457064 5.4657950877  1 1 1
Zn -11.3422560860 6.6391198301 5.4614933066  1 1 1
Zn -14.1580252328 0.5802187539 7.6197351991  1 1 1
Zn -15.3824215139 5.6632555773 7.6141509516  1 1 1
Zn 4.4565957630 1.0841422490 1.1977635440  0 0 0
Zn 3.2206663320 6.1646922450 1.1977635440  0 0 0
Zn 0.1623738410 0.0395003770 3.2510723350  0 0 0
Zn -1.0735555900 5.1200503720 3.2510723350  0 0 0
Zn -3.9499422728 -0.9807360957 5.4278101161  1 1 1
Zn -5.1766175347 4.1043157701 5.4291261186  1 1 1
Zn -7.9506850291 -1.9479481100 7.6059098676  1 1 1
Zn -9.1883988495 3.1308689848 7.5986926780  1 1 1
Zn 3.8386310480 3.6244172470 1.1977635440  0 0 0
Zn 2.6027016170 8.7049672430 1.1977635440  0 0 0
Zn -0.4555908740 2.5797753750 3.2510723350  0 0 0
Zn -1.6915203050 7.6603253700 3.2510723350  0 0 0
Zn -4.5593325416 1.5606607986 5.4255381819  1 1 1
Zn -5.8029091269 6.6420754395 5.4285360266  1 1 1
Zn -8.5660246423 0.5925550077 7.5977828040  1 1 1
Zn -9.8070089554 5.6720935917 7.6070730341  1 1 1
Zn 1.6915203330 0.4114908770 0.8555452480  0 0 0
Zn 0.4555909020 5.4920408730 0.8555452480  0 0 0
Zn -2.6027015890 -0.6331509950 2.9088540390  0 0 0
Zn -3.8386310200 4.4473990010 2.9088540390  0 0 0
Zn -6.7446087195 -1.6512037377 4.9515173807  1 1 1
Zn -7.9857079771 3.4297920526 4.9435043833  1 1 1
Zn -10.9263276600 -2.6758153223 7.2286849686  1 1 1
Zn -12.1695800273 2.4015482542 7.2262825033  1 1 1
Zn 1.0735556170 2.9517658750 0.8555452480  0 0 0
Zn -0.1623738140 8.0323158710 0.8555452480  0 0 0
Zn -3.2206663040 1.9071240030 2.9088540390  0 0 0
Zn -4.4565957350 6.9876739990 2.9088540390  0 0 0
Zn -7.3670517255 0.8857107287 4.9439532811  1 1 1
Zn -8.5997347957 5.9697618926 4.9503659200  1 1 1
Zn -11.5521345614 -0.1378723402 7.2278878230  1 1 1
Zn -12.7787310486 4.9442549732 7.2291037123  1 1 1
Zn 7.2216717000 0.4114908770 0.8555452480  0 0 0
Zn 5.9857422690 5.4920408730 0.8555452480  0 0 0
Zn 2.9274497780 -0.6331509950 2.9088540390  0 0 0
Zn 1.6915203470 4.4473990010 2.9088540390  0 0 0
Zn -1.2155547558 -1.6520991705 4.9432870144  1 1 1
Zn -2.4462149232 3.4312342627 4.9421566446  1 1 1
Zn -5.3407180903 -2.6649206020 7.2502873559  1 1 1
Zn -6.5735032922 2.4164014418 7.1933444062  1 1 1
Zn 6.6037069850 2.9517658750 0.8555452480  0 0 0
Zn 5.3677775540 8.0323158710 0.8555452480  0 0 0
Zn 2.3094850630 1.9071240030 2.9088540390  0 0 0
Zn 1.0735556320 6.9876739990 2.9088540390  0 0 0
Zn -1.8327829615 0.8885983658 4.9428053100  1 1 1
Zn -3.0661309145 5.9708279255 4.9434665047  1 1 1
Zn -5.9532685545 -0.1233671324 7.2468311823  1 1 1
Zn -7.1927191919 4.9566660964 7.2399208295  1 1 1
C -6.3103367029 2.6278214900 16.5251141013 
C -6.3951685919 2.5970437629 15.1030295398 
C -6.8043842565 3.7306558970 14.3692098690 
C -6.0780154295 1.4181510976 14.3964137298 
C -6.1621657419 1.3760882846 13.0137645286 
C -6.8926505400 3.6898292433 12.9862953250 
C -6.5787975590 2.5082718607 12.2777615552 
N -6.2503905392 2.6452214476 17.6979306139 
N -6.6330661083 2.4741603730 10.9047024755 
H -6.6252582502 1.5717325979 10.4320180675 
H -7.1494778781 3.1993046786 10.4084726242 
H -7.0679783128 4.6473677451 14.9035525438 
H -5.7601893276 0.5297703215 14.9488191312 
H -5.9004677228 0.4559883450 12.4799089636 
H -7.2100517092 4.5813855032 12.4348568812 

K_POINTS automatic 
  2 2 1 0 0 0  

