&CONTROL
  calculation = 'relax'    
  restart_mode = 'from_scratch' 
  prefix = 'Zn100_2x2x4_relax_ecutrho250_ecutwfc25_ABN'  
  outdir = './tmp'       
  pseudo_dir = '/home/ys/qepseudo/SSSP_1.3.0_PBE_efficiency' 
  tprnfor = .true.        
  tstress = .true.       
  verbosity = 'high'      
  etot_conv_thr = 1.0e-5  
  forc_conv_thr =  5.0e-4 

  max_seconds   =  1.72800e+05 
  nstep         = 100          
/

&SYSTEM
  ibrav = 0           
  nat = 47            
  ntyp = 4            
  ecutwfc = 30.0     
  ecutrho = 120.0    
  occupations = 'smearing'
  smearing = 'mv'     
  degauss = 0.02      
  nosym = .TRUE.
/

&ELECTRONS
  conv_thr = 7.35e-7        
  electron_maxstep = 200
  mixing_beta = 0.7   
  diagonalization = 'david'  
  startingwfc = "atomic+random"
  startingpot = "atomic"
/

&IONS
  ion_dynamics = 'bfgs' 
/

&CELL
  cell_dofree = 'all'   
/

ATOMIC_SPECIES
  Zn  65.38  Zn_pbe_v1.uspp.F.UPF  
  C  12.0107   C.pbe-n-kjpaw_psl.1.0.0.UPF  
  N  14.0067   N.pbe-n-radius_5.UPF  
  H  1.008   H.pbe-rrkjus_psl.1.0.0.UPF  

CELL_PARAMETERS (angstrom) 
    9.7463216782         0.0000000000         0.0000000000
    0.0000000000         5.2287197113         0.0000000000
    0.0000000000        -13.31162348          23.0564081985

ATOMIC_POSITIONS (angstrom)  
Zn               1.2182902100        1.3071799410        0.7547006760    0   0   0
Zn               1.2182902100        0.0000000130        3.0188027260    0   0   0
Zn               1.2205067634       -1.3072062682        5.6628165572
Zn               1.2205737190       -2.6142902253        8.3201892650
Zn               1.2182902100        3.9215397970        0.7547006760    0   0   0
Zn               1.2182902100        2.6143598690        3.0188027260    0   0   0
Zn               1.2205053271        1.3071537923        5.6628184526
Zn               1.2205736367        0.0000694977        8.3201882035
Zn               6.0914510490        1.3071799410        0.7547006760    0   0   0
Zn               6.0914510490        0.0000000130        3.0188027260    0   0   0
Zn               6.0890573305       -1.3072082610        5.6609911407
Zn               6.0892249133       -2.6142905141        8.3202252824
Zn               6.0914510490        3.9215397970        0.7547006760    0   0   0
Zn               6.0914510490        2.6143598690        3.0188027260    0   0   0
Zn               6.0890581661        1.3071517478        5.6609895022
Zn               6.0892258520        0.0000693755        8.3202255694
Zn               3.6548706290       -0.0000000130        1.5094013740    0   0   0
Zn               3.6548706290       -1.3071799410        3.7735034240    0   0   0
Zn               3.6539394855       -2.6143241119        6.0733771510
Zn               3.6538333976       -3.9214620518        8.4703977493
Zn               3.6548706290        2.6143598430        1.5094013740    0   0   0
Zn               3.6548706290        1.3071799150        3.7735034240    0   0   0
Zn               3.6539407699        0.0000359492        6.0733764379
Zn               3.6538324805       -1.3071019788        8.4703966414
Zn               8.5280314680       -0.0000000130        1.5094013740    0   0   0
Zn               8.5280314680       -1.3071799410        3.7735034240    0   0   0
Zn               8.5286634890       -2.6143233511        6.0721050360
Zn               8.5291403712       -3.9214590887        8.4713083916
Zn               8.5280314680        2.6143598430        1.5094013740    0   0   0
Zn               8.5280314680        1.3071799150        3.7735034240    0   0   0
Zn               8.5286646528        0.0000360775        6.0721034287
Zn               8.5291412618       -1.3070989256        8.4713096017                
C       5.4137675391     -2.4783059203     16.4272931003                 
C       5.3955580501     -2.4369139884     14.9974079642                 
C       6.2199412308     -1.5380699778     14.2921842081                 
C       4.5528417968     -3.2942190356     14.2627474287                 
C       4.5338128488     -3.2555404583     12.8766162203                 
C       6.2035971555     -1.4965631128     12.9061004079                 
C       5.3594225980     -2.3551340233     12.1650187401                 
N       5.4285615116     -2.5118260125     17.5892155554                 
N       5.3418838071     -2.3154527956     10.7992075742                 
H       4.7402514069     -2.9291951088     10.2701041362                 
H       5.9321972114     -1.6735804414     10.2911508987                 
H       6.8787298673     -0.8670449060     14.8468246821                 
H       3.9078825023     -3.9965785455     14.7942670682                 
H       3.8728543274     -3.9289611460     12.3245355557                 
H       6.8507925101     -0.7919579264     12.3772183755   

K_POINTS automatic 
  3 3 1  0 0 0  

