&CONTROL
  calculation = 'relax'    
  restart_mode = 'from_scratch' 
  prefix = 'Zn101_2x2x4_relax_ecutrho250_ecutwfc25_ABN'  
  outdir = './tmp'       
  pseudo_dir = '/home/ys/qepseudo/SSSP_1.3.0_PBE_efficiency' 
  tprnfor = .true.        
  tstress = .true.       
  verbosity = 'high'      
  etot_conv_thr = 1.0e-5  
  forc_conv_thr =  5.0e-4 

  max_seconds   =  1.72800e+05 
  nstep         = 100          
/

&SYSTEM
  ibrav = 0           
  nat = 47            
  ntyp = 4            
  ecutwfc = 30.0     
  ecutrho = 120.0    
  occupations = 'smearing'
  smearing = 'mv'     
  degauss = 0.02      
  nosym = .TRUE.
/

&ELECTRONS
  conv_thr = 7.35e-7        
  electron_maxstep = 200
  mixing_beta = 0.7   
  diagonalization = 'david'  
  startingwfc = "atomic+random"
  startingpot = "atomic"
/

&IONS
  ion_dynamics = 'bfgs' 
/

&CELL
  cell_dofree = 'all'   
/

ATOMIC_SPECIES
  Zn  65.38  Zn_pbe_v1.uspp.F.UPF  
  C  12.0107   C.pbe-n-kjpaw_psl.1.0.0.UPF  
  N  14.0067   N.pbe-n-radius_5.UPF  
  H  1.008   H.pbe-rrkjus_psl.1.0.0.UPF 

CELL_PARAMETERS (angstrom) 
    11.0603027344         0.0000000000         0.0000000000
    -1.2359294312         5.0805499959         0.0000000000
    -46.45602384          -11.30121092          22.2132353415

ATOMIC_POSITIONS (angstrom)  
Zn              -1.0735556570        1.0841422360        1.1977635690    0   0   0
Zn              -5.3677776710        0.0395003420        3.2510724040    0   0   0
Zn              -9.6997933970       -1.0142840196        5.6513536463
Zn             -13.7072340587       -1.9892449478        7.7599039545
Zn              -1.6915203730        3.6244172340        1.1977635690    0   0   0
Zn              -5.9857423860        2.5797753400        3.2510724040    0   0   0
Zn             -10.3177574621        1.5259913542        5.6513525286
Zn             -14.3251982172        0.5510303851        7.7599035579
Zn               4.4565957100        1.0841422360        1.1977635690    0   0   0
Zn               0.1623736960        0.0395003420        3.2510724040    0   0   0
Zn              -4.1693980069       -1.0142366875        5.6517554437
Zn              -8.1765603972       -1.9891311354        7.7583865129
Zn               3.8386309950        3.6244172340        1.1977635690    0   0   0
Zn              -0.4555910190        2.5797753400        3.2510724040    0   0   0
Zn              -4.7873633254        1.5260381297        5.6517551910
Zn              -8.7945254544        0.5511440112        7.7583855680
Zn               1.6915202950        0.4114908680        0.8555452660    0   0   0
Zn              -2.6027017190       -0.6331510260        2.9088541010    0   0   0
Zn              -6.9771372861       -1.6972539748        5.1015389240
Zn             -11.1372612207       -2.7092745210        7.3681532079
Zn               1.0735555790        2.9517658660        0.8555452660    0   0   0
Zn              -3.2206664340        1.9071239720        2.9088541010    0   0   0
Zn              -7.5951019832        0.8430210325        5.1015384393
Zn             -11.7552265846       -0.1689994377        7.3681532979
Zn               7.2216716620        0.4114908680        0.8555452660    0   0   0
Zn               2.9274496480       -0.6331510260        2.9088541010    0   0   0
Zn              -1.4476190976       -1.6974004079        5.1035951865
Zn              -5.6073907655       -2.7093458332        7.3647087659
Zn               6.6037069470        2.9517658660        0.8555452660    0   0   0
Zn               2.3094849330        1.9071239720        2.9088541010    0   0   0
Zn              -2.0655825929        0.8428752633        5.1035941222
Zn              -6.2253546955       -0.1690704385        7.3647083007                                 
C      -8.6373906952     -1.2009037411     15.8001686203                 
C      -8.6809476220     -1.1691686900     14.3705690642                 
C      -9.7097912724     -1.8251757219     13.6664707138                 
C      -7.6957550497     -0.4810581809     13.6350700889                 
C      -7.7363364680     -0.4492001651     12.2492598150                 
C      -9.7536264930     -1.7954490778     12.2806655507                 
C      -8.7670358954     -1.1061382191     11.5387662093                 
N      -8.6020396147     -1.2268252785     16.9618188581                 
N      -8.8085397952     -1.0759057915     10.1732452550                 
H      -8.1050786251     -0.5827727033      9.6436612679                 
H      -9.5450371631     -1.5438228192      9.6661170835                 
H     -10.4808291047     -2.3629504239     14.2216939492                 
H      -6.8917357956      0.0324810368     14.1658156409                 
H      -6.9626273855      0.0903156974     11.6965371360                 
H     -10.5602779525     -2.3107671921     11.7526268459      

K_POINTS automatic 
  3 3 1  0 0 0  

