&CONTROL
  calculation = 'relax'    
  restart_mode ='from_scratch' 
  prefix = 'Zn002_3layer_aniline_relax'  
  outdir = './tmp'       
  pseudo_dir = '/home/yongsang/Research/PSID_server_room/qe/[00]QE/qepseudo/SSSP_1.3.0_PBE_efficiency' 
  tprnfor = .true.        
  tstress = .true.       
  verbosity = 'high'      
  etot_conv_thr = 5.0e-5  
  forc_conv_thr =  1.0e-3
  max_seconds   =  1.72800e+06
  nstep         = 300          
/

&SYSTEM
  ibrav = 0           
  nat = 62            
  ntyp = 4            
  ecutwfc = 40.0
  ecutrho = 280.0    
  occupations = 'smearing'
  smearing = 'mv'     
  nosym = .TRUE.
  degauss = 0.02      
  vdw_corr='grimme-d3'
/

&ELECTRONS
  conv_thr = 1e-6        
  electron_maxstep = 200
  mixing_beta = 0.4   
  diagonalization = 'david'  
  startingwfc = "atomic+random"
  startingpot = "atomic"
/

&IONS
  ion_dynamics = 'bfgs' 
/

&CELL
  cell_dofree = 'all'   
/

ATOMIC_SPECIES
  Zn  65.38  Zn_pbe_v1.uspp.F.UPF  
  N      14.00674  N.pbe-n-radius_5.UPF
  C      12.01070  C.pbe-n-kjpaw_psl.1.0.0.UPF
  H       1.00794  H.pbe-rrkjus_psl.1.0.0.UPF

CELL_PARAMETERS (angstrom) 
       10.4574394226         0.0000000000         0.0000000000
       -5.2287197113         9.0564081985         0.0000000000
        0.0000000000         0.0000000000        23.7463226318

ATOMIC_POSITIONS (angstrom)
Zn               0.0000000000        1.5094010000        1.2182900000    0   0   0
Zn               5.2287200000        1.5094010000        1.2182900000    0   0   0
Zn               0.0006771611        1.5087064800        6.1127424862
Zn               5.2274988254        1.5050263429        6.1152450187
Zn              -1.3071800000        3.7735030000        1.2182900000    0   0   0
Zn               3.9215400000        3.7735030000        1.2182900000    0   0   0
Zn              -1.3019815053        3.7726850663        6.1161183545
Zn               3.9157184657        3.7739685829        6.1180173379
Zn              -2.6143600000        6.0376050000        1.2182900000    0   0   0
Zn               2.6143600000        6.0376050000        1.2182900000    0   0   0
Zn              -2.6113726321        6.0402265313        6.1155863224
Zn               2.6089359788        6.0378139390        6.0511356958
Zn              -3.9215400000        8.3017080000        1.2182900000    0   0   0
Zn               1.3071800000        8.3017080000        1.2182900000    0   0   0
Zn              -3.9228299484        8.3045901756        6.1131722655
Zn               1.3089480195        8.2992748413        6.1168244302
Zn               2.6143600000        1.5094010000        1.2182900000    0   0   0
Zn               7.8430800000        1.5094010000        1.2182900000    0   0   0
Zn               2.6154306779        1.5105250714        6.1116154543
Zn               7.8422565790        1.5043026356        6.1163355498
Zn               1.3071800000        3.7735030000        1.2182900000    0   0   0
Zn               6.5359000000        3.7735030000        1.2182900000    0   0   0
Zn               1.3127355017        3.7766758508        6.1351314155
Zn               6.5343871664        3.7696298070        6.1180881993
Zn               0.0000000000        6.0376050000        1.2182900000    0   0   0
Zn               5.2287200000        6.0376050000        1.2182900000    0   0   0
Zn               0.0085940002        6.0417478759        6.1397939020
Zn               5.2187243616        6.0379334247        6.1470867326
Zn              -1.3071800000        8.3017080000        1.2182900000    0   0   0
Zn               3.9215400000        8.3017080000        1.2182900000    0   0   0
Zn              -1.3026300957        8.3038721335        6.1125479043
Zn               3.9133385978        8.2989407590        6.1409291606
Zn               1.3089616226        0.7571993212        3.6891130959
Zn               6.5353198701        0.7468243997        3.6941345976
Zn               0.0045502755        3.0171585723        3.6835122074
Zn               5.2222565218        3.0150529759        3.6925036457
Zn              -1.3018384086        5.2853760295        3.6812461701
Zn               3.9150491346        5.2815804916        3.6895977528
Zn              -2.6105843553        7.5520786480        3.6888123817
Zn               2.6094000190        7.5487840117        3.6893894538
Zn               3.9194330141        0.7525592901        3.6870739258
Zn               9.1502918028        0.7535618329        3.6872897795
Zn               2.6118182144        3.0162571091        3.6912260857
Zn               7.8468083073        3.0147909720        3.6886642418
Zn               1.3065026969        5.2831251739        3.6964577881
Zn               6.5369454104        5.2842894376        3.6832165846
Zn               0.0020547164        7.5490754878        3.6912240796
Zn               5.2266004426        7.5518518785        3.6888309903
C                2.7092739457        6.1270991362       10.9690309280
C                2.2216398151        7.2477240219       13.0777727181
C                2.2076929485        7.2347071027       11.6828838762
C                3.2315621323        5.0623070222       13.0988116830
C                3.2248876637        5.0389362663       11.7037814176
C                2.7327915921        6.1643064483       13.7984059507
N                2.7017491261        6.1095834747        9.5813097156
H                3.0520195641        5.3293041679        9.0431755949
H                1.8280826675        8.1182837820       13.6089066081
H                3.6319638471        4.2046333668       13.6457621073
H                3.6141239178        4.1712931765       11.1677908129
H                2.7398671400        6.1778145520       14.8886360884
H                1.8081136129        8.0872107418       11.1296573913
H                2.3392151264        6.8745227929        9.0274284307

K_POINTS automatic 
  2 2 1  0 0 0  

