&CONTROL
  calculation = 'relax'    
  restart_mode = 'from_scratch' 
  prefix = 'Zn002_2x2x4_relax_ecutrho250_ecutwfc25_H2O'  
  outdir = './tmp'       
  pseudo_dir = '/home/ys/qepseudo/SSSP_1.3.0_PBE_efficiency' 
  tprnfor = .true.        
  tstress = .true.       
  verbosity = 'high'      
  etot_conv_thr = 1.0e-5  
  forc_conv_thr =  5.0e-4 

  max_seconds   =  1.72800e+05 
  nstep         = 100          
/

&SYSTEM
  ibrav = 0           
  nat = 35            
  ntyp = 3            
  ecutwfc = 30.0     
  ecutrho = 120.0    
  occupations = 'smearing'
  smearing = 'mv'     
  degauss = 0.02      
  nosym = .TRUE.
/

&ELECTRONS
  conv_thr = 7.35e-7        
  electron_maxstep = 200
  mixing_beta = 0.7   
  diagonalization = 'david'  
  startingwfc = "atomic+random"
  startingpot = "atomic"
/

&IONS
  ion_dynamics = 'bfgs' 
/

&CELL
  cell_dofree = 'all'   
/

ATOMIC_SPECIES
  Zn  65.38  Zn_pbe_v1.uspp.F.UPF  
  H  1.008   H.pbe-rrkjus_psl.1.0.0.UPF  
  O  16.000   O.pbe-n-kjpaw_psl.0.1.UPF  

CELL_PARAMETERS (angstrom) 
        5.2287197113         0.0000000000         0.0000000000
       -5.2287197113         9.0564081985         0.0000000000
        0.0000000000         0.0000000000         23.7463216782

ATOMIC_POSITIONS (angstrom)  
Zn  -0.0000000130 1.5094013740 1.2182902100  0 0 0  
Zn  -0.0000015064 1.5142308346 6.2418183324  1 1 1  
Zn  -1.3071799410 3.7735034240 1.2182902100  0 0 0
Zn  -1.3071815187 3.7789693452 6.2422267090  1 1 1
Zn  -2.6143598690 6.0376054730 1.2182902100  0 0 0  
Zn  -2.6143596010 6.0427134194 6.2426429977  1 1 1  
Zn  -3.9215397970 8.3017075230 1.2182902100  0 0 0
Zn  -3.9215389747 8.3062360024 6.2424062806  1 1 1
Zn  2.6143598430 1.5094013740 1.2182902100  0 0 0  
Zn  2.6143626786 1.5142316129 6.2418208564  1 1 1 
Zn  1.3071799150 3.7735034240 1.2182902100 0 0 0
Zn  1.3071821450 3.7789709445 6.2422244244 1 1 1
Zn  -0.0000000130 6.0376054730 1.2182902100  0 0 0   
Zn  0.0000008530 6.0427146528 6.2426401483   1 1 1  
Zn  -1.3071799410 8.3017075230 1.2182902100  0 0 0
Zn  -1.3071806390 8.3062372265 6.2424059394  1 1 1
Zn  1.3071799410 0.7547006760 3.6548706290  0 0 0 
Zn  1.3071793759 0.7442191393 8.8286621377  1 1 1 
Zn  0.0000000130 3.0188027250 3.6548706290 0 0 0
Zn  0.0000005839 3.0089234186 8.8288802799 1 1 1
Zn  -1.3071799150 5.2829047750 3.6548706290  0 0 0  
Zn  -1.3071784451 5.2730370550 8.8260097737  1 1 1  
Zn  -2.6143598430 7.5470068250 3.6548706290  0 0 0
Zn  -2.6143595532 7.5365411093 8.8258033281  1 1 1
Zn  3.9215397970 0.7547006760 3.6548706290  0 0 0  
Zn  3.9215410180 0.7442188186 8.8286616024  1 1 1 
Zn  2.6143598690 3.0188027250 3.6548706290 0 0 0
Zn  2.6143602096 3.0089227841 8.8288845038 1 1 1
Zn  1.3071799410 5.2829047750 3.6548706290  0 0 0  
Zn  1.3071792906 5.2730365717 8.8260091880  1 1 1 
Zn  0.0000000130 7.5470068250 3.6548706290 0 0 0
Zn  0.0000005470 7.5365401002 8.8258027248  1 1 1               
O   -0.6041367593      5.5026238981     11.9588330575                 
H   -1.4865376649      5.9310733362     11.8226283197                 
H   -0.7702069818      4.5385356012     11.8053176611    

K_POINTS automatic 
  3 3 1  0 0 0  

