&CONTROL
  calculation = 'relax'    
  restart_mode ='restart' 
  prefix = 'Zn101_3layer_relax'  
  outdir = './tmp'       
  pseudo_dir = '/home/ys/qepseudo/SSSP_1.3.0_PBE_efficiency' 
  tprnfor = .true.        
  tstress = .true.       
  verbosity = 'high'      
  etot_conv_thr = 1.0e-5  
  forc_conv_thr =  5.0e-4 
  max_seconds   =  1.72800e+05 
  nstep         = 100          
/

&SYSTEM
  ibrav = 0           
  nat = 48            
  ntyp = 1            
  ecutwfc = 40.0
  ecutrho = 280.0    
  occupations = 'smearing'
  smearing = 'mv'     
  nosym = .TRUE.
  degauss = 0.02      
  vdw_corr='grimme-d3'
/

&ELECTRONS
  conv_thr = 1e-6        
  electron_maxstep = 200
  mixing_beta = 0.4   
  diagonalization = 'david'  
  startingwfc = "atomic+random"
  startingpot = "atomic"
/

&IONS
  ion_dynamics = 'bfgs' 
/

&CELL
  cell_dofree = 'all'   
/

ATOMIC_SPECIES
  Zn  65.38  Zn_pbe_v1.uspp.F.UPF  

CELL_PARAMETERS (angstrom) 
       11.0603027344         0.0000000000         0.0000000000
       -2.4718588623        10.1610999917         0.0000000000
      -46.4560228483       -11.3012106837        22.2132348689

ATOMIC_POSITIONS (angstrom)  
Zn              -1.0735560000        1.0841420000        1.1977640000    0   0   0
Zn              -2.3094850000        6.1646920000        1.1977640000    0   0   0
Zn              -5.2474974299        0.0658950621        3.6049791804
Zn              -6.4835782775        5.1369000342        3.6063219424
Zn              -9.3119879165       -0.9174380258        5.7543187396
Zn             -10.5479017938        4.1515596401        5.7544561611
Zn              -1.6915200000        3.6244170000        1.1977640000    0   0   0
Zn              -2.9274500000        8.7049670000        1.1977640000    0   0   0
Zn              -5.8660190345        2.5980448514        3.6048471916
Zn              -7.1009919437        7.6854594302        3.6064281181
Zn              -9.9302276093        1.6160030252        5.7534727023
Zn             -11.1655406460        6.6982040251        5.7552202327
Zn               4.4565960000        1.0841420000        1.1977640000    0   0   0
Zn               3.2206660000        6.1646920000        1.1977640000    0   0   0
Zn               0.2787803644        0.0645919891        3.6042911920
Zn              -0.9580650561        5.1365672963        3.6051515777
Zn              -3.7769255979       -0.9165587587        5.7536247868
Zn              -5.0127409280        4.1529795294        5.7531729166
Zn               3.8386310000        3.6244170000        1.1977640000    0   0   0
Zn               2.6027020000        8.7049670000        1.1977640000    0   0   0
Zn              -0.3398858635        2.5964039057        3.6039129975
Zn              -1.5752558379        7.6847669046        3.6055372527
Zn              -4.3952739890        1.6177775107        5.7525840362
Zn              -5.6301059567        6.6990415562        5.7541055497
Zn               1.6915200000        0.4114910000        0.8555450000    0   0   0
Zn               0.4555910000        5.4920410000        0.8555450000    0   0   0
Zn              -2.5671485430       -0.6145581012        3.0306754500
Zn              -3.8043637570        4.4549288011        3.0312616641
Zn              -6.7285332178       -1.6330406324        5.2112783853
Zn              -7.9647972348        3.4373873329        5.2106445874
Zn               1.0735560000        2.9517660000        0.8555450000    0   0   0
Zn              -0.1623740000        8.0323160000        0.8555450000    0   0   0
Zn              -3.1860269526        1.9188800758        3.0301376419
Zn              -4.4213435526        7.0017817766        3.0318939323
Zn              -7.3464939132        0.9042857281        5.2103116331
Zn              -8.5827262455        5.9803038213        5.2115922550
Zn               7.2216720000        0.4114910000        0.8555450000    0   0   0
Zn               5.9857420000        5.4920410000        0.8555450000    0   0   0
Zn               2.9599474636       -0.6150557047        3.0305913767
Zn               1.7233217917        4.4535724739        3.0310272472
Zn              -1.1983832417       -1.6333608302        5.2106812507
Zn              -2.4349897939        3.4371991325        5.2103953651
Zn               6.6037070000        2.9517660000        0.8555450000    0   0   0
Zn               5.3677780000        8.0323160000        0.8555450000    0   0   0
Zn               2.3414907807        1.9178296733        3.0299998151
Zn               1.1056555468        7.0016071602        3.0316163397
Zn              -1.8164227349        0.9042936583        5.2099999742
Zn              -3.0530180183        5.9807689517        5.2109505152

K_POINTS automatic 
  3 3 1  0 0 0  

