&CONTROL
  calculation = 'relax'    
  restart_mode ='from_scratch' 
  prefix = 'Zn002_4layer_ABN_relax'  
  outdir = './tmp'       
  pseudo_dir = '/home/ys/qepseudo/SSSP_1.3.0_PBE_efficiency' 
  tprnfor = .true.        
  tstress = .true.       
  verbosity = 'high'      
  etot_conv_thr = 1.0e-5  
  forc_conv_thr =  5.0e-4 
  max_seconds   =  1.72800e+05 
  nstep         = 100          
/

&SYSTEM
  ibrav = 0           
  nat = 79            
  ntyp = 4            
  ecutwfc = 40.0
  ecutrho = 280.0    
  occupations = 'smearing'
  smearing = 'mv'     
  nosym = .TRUE.
  degauss = 0.02      
/

&ELECTRONS
  conv_thr = 1e-6        
  electron_maxstep = 200
  mixing_beta = 0.4   
  diagonalization = 'david'  
  startingwfc = "atomic+random"
  startingpot = "atomic"
/

&IONS
  ion_dynamics = 'bfgs' 
/

&CELL
  cell_dofree = 'all'   
/

ATOMIC_SPECIES
  Zn  65.38  Zn_pbe_v1.uspp.F.UPF  
  N      14.00674  N.pbe-n-radius_5.UPF
  C      12.01070  C.pbe-n-kjpaw_psl.1.0.0.UPF
  H       1.00794  H.pbe-rrkjus_psl.1.0.0.UPF 

CELL_PARAMETERS (angstrom) 
       10.4574394226         0.0000000000         0.0000000000
       -5.2287197113         9.0564081985         0.0000000000
        0.0000000000         0.0000000000        23.7463226318

ATOMIC_POSITIONS (angstrom)  
Zn      -0.0000000130      1.5094013740      1.2182902590  0 0 0
Zn       5.2287196980      1.5094013740      1.2182902590  0 0 0
Zn       0.0009672701      1.5097664644      6.1726102187  1 1 1
Zn       5.2277482449      1.5095930808      6.1873087630  1 1 1
Zn      -1.3071799410      3.7735034240      1.2182902590  0 0 0
Zn       3.9215397700      3.7735034240      1.2182902590  0 0 0
Zn      -1.3063719229      3.7738875604      6.1791594279  1 1 1
Zn       3.9206233662      3.7737133243      6.1838547922  1 1 1
Zn      -2.6143598690      6.0376054730      1.2182902590  0 0 0
Zn       2.6143598420      6.0376054730      1.2182902590  0 0 0
Zn      -2.6142367979      6.0378415726      6.1858921844  1 1 1
Zn       2.6141501874      6.0367976611      6.1776942570  1 1 1
Zn      -3.9215397970      8.3017075230      1.2182902590  0 0 0
Zn       1.3071799140      8.3017075230      1.2182902590  0 0 0
Zn      -3.9212729447      8.3018915921      6.1800104036  1 1 1
Zn       1.3069101852      8.3009087738      6.1814009242  1 1 1
Zn       2.6143598430      1.5094013740      1.2182902590  0 0 0
Zn       7.8430795540      1.5094013740      1.2182902590  0 0 0
Zn       2.6133734869      1.5094697088      6.1808349476  1 1 1
Zn       7.8440575705      1.5099117625      6.1795191443  1 1 1
Zn       1.3071799150      3.7735034240      1.2182902590  0 0 0
Zn       6.5358996260      3.7735034240      1.2182902590  0 0 0
Zn       1.3068312798      3.7732602438      6.1751536362  1 1 1
Zn       6.5361493634      3.7743012135      6.1873106112  1 1 1
Zn      -0.0000000130      6.0376054730      1.2182902590  0 0 0
Zn       5.2287196980      6.0376054730      1.2182902590  0 0 0
Zn      -0.0003941625      6.0368201367      6.1810603843  1 1 1
Zn       5.2290311832      6.0379145550      6.1832350289  1 1 1
Zn      -1.3071799410      8.3017075230      1.2182902590  0 0 0
Zn       3.9215397700      8.3017075230      1.2182902590  0 0 0
Zn      -1.3081728198      8.3012685333      6.1860020419  1 1 1
Zn       3.9227058046      8.3015275799      6.1749638143  1 1 1
Zn       1.3071799410      0.7547006760      3.6548707760  0 0 0
Zn       6.5358996520      0.7547006760      3.6548707760  0 0 0
Zn       1.3061930462      0.7555975515      8.7010815921  1 1 1
Zn       6.5370145388      0.7541845043      8.7014153779  1 1 1
Zn       0.0000000130      3.0188027250      3.6548707760  0 0 0
Zn       5.2287197240      3.0188027250      3.6548707760  0 0 0
Zn       0.0010716017      3.0182670767      8.6988937409  1 1 1
Zn       5.2276864047      3.0192567974      8.7078332229  1 1 1
Zn      -1.3071799150      5.2829047750      3.6548707760  0 0 0
Zn       3.9215397960      5.2829047750      3.6548707760  0 0 0
Zn      -1.3060136470      5.2820959985      8.7084144340  1 1 1
Zn       3.9203397322      5.2832870663      8.7026761737  1 1 1
Zn      -2.6143598430      7.5470068250      3.6548707760  0 0 0
Zn       2.6143598680      7.5470068250      3.6548707760  0 0 0
Zn      -2.6152269173      7.5476044720      8.7107303954  1 1 1
Zn       2.6152988155      7.5463949638      8.6959851686  1 1 1
Zn       3.9215397970      0.7547006760      3.6548707760  0 0 0
Zn       9.1502595080      0.7547006760      3.6548707760  0 0 0
Zn       3.9199180396      0.7550326657      8.7085483689  1 1 1
Zn       9.1520837386      0.7547482280      8.6939540859  1 1 1
Zn       2.6143598690      3.0188027250      3.6548707760  0 0 0
Zn       7.8430795800      3.0188027250      3.6548707760  0 0 0
Zn       2.6125382150      3.0190425603      8.7031321641  1 1 1
Zn       7.8449464234      3.0185202056      8.7041277299  1 1 1
Zn       1.3071799410      5.2829047750      3.6548707760  0 0 0
Zn       6.5358996520      5.2829047750      3.6548707760  0 0 0
Zn       1.3074080423      5.2817564900      8.7011270735  1 1 1
Zn       6.5356311164      5.2836100070      8.7099123907  1 1 1
Zn       0.0000000130      7.5470068250      3.6548707760  0 0 0
Zn       5.2287197240      7.5470068250      3.6548707760  0 0 0
Zn       0.0003821602      7.5459684203      8.7066390524  1 1 1
Zn       5.2283688379      7.5480597522      8.7009756990  1 1 1
N        2.9516519604      2.4758572213     18.9326238565                 
H        5.0077710374      2.6424102876     16.0937202253                 
C        2.9104174924      2.5513550353     17.7676525741                 
C        4.0440126390      2.6830440107     15.5863541839                 
C        2.8591258344      2.6440354961     16.3478359670                 
C        3.9957937893      2.7735317579     14.2042867470                 
H        4.9245342555      2.8035180027     13.6314799807                 
C        1.6228251560      2.6988930985     15.6740360440                 
C        2.7580816733      2.8286226721     13.5268573049                 
C        1.5721034511      2.7892406339     14.2920953212                 
N        2.7093450911      2.9185910366     12.1616101591                 
H        3.5543144304      2.9485919251     11.6103878335                 
H        0.6977973335      2.6705713404     16.2498068887                 
H        1.8273428797      2.9598391358     11.6728690585                 
H        0.6050496266      2.8317485176     13.7878449961 

K_POINTS automatic 
  3 3 1  0 0 0  

