&CONTROL
  calculation = 'relax'    
  restart_mode = 'from_scratch' 
  prefix = 'Zn100_2x2x4_relax_ecutrho250_ecutwfc25_H2O'  
  outdir = './tmp'       
  pseudo_dir = '/home/ys/qepseudo/SSSP_1.3.0_PBE_efficiency' 
  tprnfor = .true.        
  tstress = .true.       
  verbosity = 'high'      
  etot_conv_thr = 1.0e-5  
  forc_conv_thr =  5.0e-4 

  max_seconds   =  1.72800e+05 
  nstep         = 100          
/

&SYSTEM
  ibrav = 0           
  nat = 35            
  ntyp = 3            
  ecutwfc = 30.0     
  ecutrho = 120.0    
  occupations = 'smearing'
  smearing = 'mv'     
  degauss = 0.02      
  nosym = .TRUE.
/

&ELECTRONS
  conv_thr = 7.35e-7        
  electron_maxstep = 200
  mixing_beta = 0.7   
  diagonalization = 'david'  
  startingwfc = "atomic+random"
  startingpot = "atomic"
/

&IONS
  ion_dynamics = 'bfgs' 
/

&CELL
  cell_dofree = 'all'   
/

ATOMIC_SPECIES
  Zn  65.38  Zn_pbe_v1.uspp.F.UPF  
  H  1.008   H.pbe-rrkjus_psl.1.0.0.UPF  
  O  16.000   O.pbe-n-kjpaw_psl.0.1.UPF  

CELL_PARAMETERS (angstrom) 
    9.7463216782         0.0000000000         0.0000000000
    0.0000000000         5.2287197113         0.0000000000
    0.0000000000        -13.31162348          23.0564081985

ATOMIC_POSITIONS (angstrom)  
Zn              1.2182902100      1.3071799410      0.7547006760    0   0   0
Zn              1.2182902100      0.0000000130      3.0188027260    0   0   0
Zn              1.3047030419     -1.2984293293      5.6565263454
Zn              1.2880945155     -2.6040023481      8.2884187321
Zn              1.2182902100      3.9215397970      0.7547006760    0   0   0
Zn              1.2182902100      2.6143598690      3.0188027260    0   0   0
Zn              1.3035189189      1.3138087480      5.6432212545
Zn              1.2917203817      0.0113093162      8.3003623766
Zn              6.0914510490      1.3071799410      0.7547006760    0   0   0
Zn              6.0914510490      0.0000000130      3.0188027260    0   0   0
Zn              6.1552583823     -1.2976313783      5.6391254279
Zn              6.1534209135     -2.5965677585      8.2347968672
Zn              6.0914510490      3.9215397970      0.7547006760    0   0   0
Zn              6.0914510490      2.6143598690      3.0188027260    0   0   0
Zn              6.1601861456      1.3168278895      5.6306306443
Zn              6.1618415499      0.0190339651      8.2540156910
Zn              3.6548706290     -0.0000000130      1.5094013740    0   0   0
Zn              3.6548706290     -1.3071799410      3.7735034240    0   0   0
Zn              3.7401334271     -2.6173612366      6.0908921932
Zn              3.6958130754     -3.8958346771      8.5831819685
Zn              3.6548706290      2.6143598430      1.5094013740    0   0   0
Zn              3.6548706290      1.3071799150      3.7735034240    0   0   0
Zn              3.7406167880      0.0065846097      6.0943259357
Zn              3.7244055762     -1.2836891892      8.4556128954
Zn              8.5280314680     -0.0000000130      1.5094013740    0   0   0
Zn              8.5280314680     -1.3071799410      3.7735034240    0   0   0
Zn              8.6206063889     -2.6072807432      6.0586563506
Zn              8.5973899621     -3.9098153007      8.4488672645
Zn              8.5280314680      2.6143598430      1.5094013740    0   0   0
Zn              8.5280314680      1.3071799150      3.7735034240    0   0   0
Zn              8.6152130299      0.0085612479      6.0553025888
Zn              8.6029760089     -1.2937283308      8.4471648916                
 O  4.1312668218     -3.5637383851     11.2628027040                 
 H  4.7717737295     -3.1978774959     11.9137850095                 
 H  3.3525331996     -3.8129025037     11.8067916317    

K_POINTS automatic 
  3 3 1  0 0 0  

