&CONTROL
  calculation = 'relax'    
  restart_mode ='from_scratch' 
  prefix = 'Zn100_3layer_relax'  
  outdir = './tmp'       
  pseudo_dir = '/home/ys/qepseudo/SSSP_1.3.0_PBE_efficiency' 
  tprnfor = .true.        
  tstress = .true.       
  verbosity = 'high'      
  etot_conv_thr = 1.0e-5  
  forc_conv_thr =  5.0e-4 
  max_seconds   =  1.72800e+05 
  nstep         = 100          
/

&SYSTEM
  ibrav = 0           
  nat = 48            
  ntyp = 1            
  ecutwfc = 40.0
  ecutrho = 280.0    
  occupations = 'smearing'
  smearing = 'mv'     
  nosym = .TRUE.
  degauss = 0.02      
  vdw_corr='grimme-d3'
/

&ELECTRONS
  conv_thr = 1e-6        
  electron_maxstep = 200
  mixing_beta = 0.4   
  diagonalization = 'david'  
  startingwfc = "atomic+random"
  startingpot = "atomic"
/

&IONS
  ion_dynamics = 'bfgs' 
/

&CELL
  cell_dofree = 'all'   
/

ATOMIC_SPECIES
  Zn  65.38  Zn_pbe_v1.uspp.F.UPF  

CELL_PARAMETERS (angstrom) 
        9.7463216782         0.0000000000         0.0000000000
        0.0000000000        10.4574394226         0.0000000000
        0.0000000000       -13.3116235733        23.0564083602

ATOMIC_POSITIONS (angstrom)  
Zn               1.2182900000        1.3071800000        0.7547010000    0   0   0
Zn               1.2182900000        6.5359000000        0.7547010000    0   0   0
Zn               1.2186264843       -0.0003037812        3.5509453584
Zn               1.2186459256        5.2290663921        3.5504088378
Zn               1.2186098387       -1.3074240104        6.1151709419
Zn               1.2185743342        3.9218259146        6.1156332212
Zn               1.2182900000        3.9215400000        0.7547010000    0   0   0
Zn               1.2182900000        9.1502600000        0.7547010000    0   0   0
Zn               1.2185878136        2.6141325148        3.5512224861
Zn               1.2186611789        7.8433501881        3.5502116094
Zn               1.2185570395        1.3070146990        6.1159525544
Zn               1.2186264098        6.5360684287        6.1148760041
Zn               6.0914510000        1.3071800000        0.7547010000    0   0   0
Zn               6.0914510000        6.5359000000        0.7547010000    0   0   0
Zn               6.0911742642       -0.0002405301        3.5485565566
Zn               6.0911563159        5.2290064427        3.5485826907
Zn               6.0911740847       -1.3075579558        6.1154254928
Zn               6.0911812752        3.9219568611        6.1161523610
Zn               6.0914510000        3.9215400000        0.7547010000    0   0   0
Zn               6.0914510000        9.1502600000        0.7547010000    0   0   0
Zn               6.0912153893        2.6145647052        3.5493086855
Zn               6.0911525552        7.8429156096        3.5478848029
Zn               6.0912027490        1.3071242726        6.1163474151
Zn               6.0911522962        6.5359557695        6.1152318488
Zn               3.6548710000       -0.0000000000        1.5094010000    0   0   0
Zn               3.6548710000        5.2287200000        1.5094010000    0   0   0
Zn               3.6541695707       -1.3075053681        3.8214308048
Zn               3.6540850347        3.9218919290        3.8213708992
Zn               3.6531242192       -2.6144494038        6.2105533896
Zn               3.6531101202        2.6145286504        6.2113549091
Zn               3.6548710000        2.6143600000        1.5094010000    0   0   0
Zn               3.6548710000        7.8430800000        1.5094010000    0   0   0
Zn               3.6541491071        1.3068826469        3.8213799633
Zn               3.6541091758        6.5361873731        3.8214301263
Zn               3.6530498325       -0.0001671494        6.2109979472
Zn               3.6531837964        5.2289474628        6.2108970909
Zn               8.5280310000       -0.0000000000        1.5094010000    0   0   0
Zn               8.5280310000        5.2287200000        1.5094010000    0   0   0
Zn               8.5286924066       -1.3073930071        3.8214920951
Zn               8.5288596629        3.9217562663        3.8213848378
Zn               8.5297607007       -2.6143928101        6.2107397504
Zn               8.5297965316        2.6144654471        6.2114319484
Zn               8.5280310000        2.6143600000        1.5094010000    0   0   0
Zn               8.5280310000        7.8430800000        1.5094010000    0   0   0
Zn               8.5287993201        1.3069569333        3.8213722876
Zn               8.5287503987        6.5361346764        3.8215136844
Zn               8.5298447629        0.0000003196        6.2110934060
Zn               8.5296984373        5.2287884253        6.2110737680

K_POINTS automatic 
  3 3 1  0 0 0  

