&CONTROL
  calculation = 'relax'    
  restart_mode ='from_scratch' 
  prefix = '02_Zn101_H2O'  
  outdir = './tmp'       
  pseudo_dir = '/home/ys/qepseudo/SSSP_1.3.0_PBE_efficiency' 
  tprnfor = .true.        
  tstress = .true.       
  verbosity = 'high'      
  etot_conv_thr = 1.0e-5  
  forc_conv_thr =  5.0e-4 
  max_seconds   =  1.72800e+06
  nstep         =500          
/

&SYSTEM
  ibrav = 0           
  nat = 51            
  ntyp = 3            
  ecutwfc = 40.0
  ecutrho = 280.0    
  occupations = 'smearing'
  smearing = 'mv'     
  nosym = .TRUE.
  degauss = 0.02      
  vdw_corr='grimme-d3'
/

&ELECTRONS
  conv_thr = 1e-6        
  electron_maxstep = 200
  mixing_beta = 0.4   
  diagonalization = 'david'  
  startingwfc = "atomic+random"
  startingpot = "atomic"
/

&IONS
  ion_dynamics = 'bfgs' 
/

&CELL
  cell_dofree = 'all'   
/

ATOMIC_SPECIES
  Zn  65.38  Zn_pbe_v1.uspp.F.UPF  
  O      15.99940  O.pbe-n-kjpaw_psl.0.1.UPF
  H       1.00794  H.pbe-rrkjus_psl.1.0.0.UPF

CELL_PARAMETERS (angstrom) 
       11.0603027344         0.0000000000         0.0000000000
       -2.4718588623        10.1610999917         0.0000000000
      -46.4560228483       -11.3012106837        22.2132348689
  
ATOMIC_POSITIONS (angstrom)
Zn              -1.0735560000        1.0841420000        1.1977640000    0   0   0
Zn              -2.3094850000        6.1646920000        1.1977640000    0   0   0
Zn              -5.2821511036        0.0501523541        3.4662747025
Zn              -6.4464623066        5.1325562618        3.3840668836
Zn              -7.9828622716       -0.6479371515        5.6556658530
Zn              -9.3133186652        4.4453370586        5.8357926897
Zn              -1.6915200000        3.6244170000        1.1977640000    0   0   0
Zn              -2.9274500000        8.7049670000        1.1977640000    0   0   0
Zn              -5.8042085330        2.5862417442        3.3993207308
Zn              -7.0765606119        7.7062186791        3.4036621142
Zn              -8.7230760690        1.8732150409        5.8520853842
Zn              -9.8705669287        7.0301461444        5.8138923078
Zn               4.4565960000        1.0841420000        1.1977640000    0   0   0
Zn               3.2206660000        6.1646920000        1.1977640000    0   0   0
Zn               0.9610195444        0.2675219025        4.2456934632
Zn              -0.2748999065        5.3027249806        4.5359313764
Zn              -3.0451416793       -0.7276117829        5.9616516036
Zn              -4.3790961612        4.2982026234        5.7904995290
Zn               3.8386310000        3.6244170000        1.1977640000    0   0   0
Zn               2.6027020000        8.7049670000        1.1977640000    0   0   0
Zn               0.3738232634        2.7716551012        4.3060313070
Zn              -0.8795671558        7.8087107445        4.3274468428
Zn              -3.6645734722        1.7708698339        5.9476571250
Zn              -4.9787353144        6.8812671854        5.7268852172
Zn               1.6915200000        0.4114910000        0.8555450000    0   0   0
Zn               0.4555910000        5.4920410000        0.8555450000    0   0   0
Zn              -2.6317596726       -0.6388824327        2.9380429824
Zn              -3.7909023451        4.4340533917        2.9204953088
Zn              -5.4955329181       -1.3694123445        5.7643053293
Zn              -6.8393002535        3.6681052617        5.6363762122
Zn               1.0735560000        2.9517660000        0.8555450000    0   0   0
Zn              -0.1623740000        8.0323160000        0.8555450000    0   0   0
Zn              -3.2375918512        1.9020626661        2.9481838149
Zn              -4.4016933134        7.0156321918        2.9149578032
Zn              -6.1971150480        1.1780959818        5.6547176920
Zn              -7.4486076029        6.2113973522        5.6249111143
Zn               7.2216720000        0.4114910000        0.8555450000    0   0   0
Zn               5.9857420000        5.4920410000        0.8555450000    0   0   0
Zn               3.1059427407       -0.6180971724        2.8987880782
Zn               1.8526168310        4.5245915441        2.9827447359
Zn              -0.8131062981       -1.5265234602        4.6624576188
Zn              -2.0555412076        3.4825264370        4.6792946854
Zn               6.6037070000        2.9517660000        0.8555450000    0   0   0
Zn               5.3677780000        8.0323160000        0.8555450000    0   0   0
Zn               2.5405282928        1.9801911569        2.9301582465
Zn               1.2279857337        7.0096157801        2.9584945894
Zn              -1.4687769159        0.9792600670        4.6772165786
Zn              -2.6998221853        6.0828124967        4.6407921584
O               -9.8547889773        1.4703812648        7.9155327781
H              -10.1581268641        2.3077124296        8.3166512606
H               -9.2789256588        1.0248505328        8.5638040097

K_POINTS automatic 
  3 3 1  0 0 0  

