&CONTROL
  calculation = 'relax'    
  restart_mode ='from_scratch' 
  prefix = 'Zn002_3layer_ptoluidine_relax'  
  outdir = './tmp'       
  pseudo_dir = '/home/yongsang/Research/PSID_server_room/qe/[00]QE/qepseudo/SSSP_1.3.0_PBE_efficiency' 
  tprnfor = .true.        
  tstress = .true.       
  verbosity = 'high'      
  etot_conv_thr = 5.0e-5  
  forc_conv_thr =  1.0e-3
  max_seconds   =  1.72800e+06
  nstep         = 300          
/

&SYSTEM
  ibrav = 0           
  nat = 65            
  ntyp = 4            
  ecutwfc = 40.0
  ecutrho = 280.0    
  occupations = 'smearing'
  smearing = 'mv'     
  nosym = .TRUE.
  degauss = 0.02      
  vdw_corr='grimme-d3'
/

&ELECTRONS
  conv_thr = 1e-6        
  electron_maxstep = 200
  mixing_beta = 0.4   
  diagonalization = 'david'  
  startingwfc = "atomic+random"
  startingpot = "atomic"
/

&IONS
  ion_dynamics = 'bfgs' 
/

&CELL
  cell_dofree = 'all'   
/

ATOMIC_SPECIES
  Zn  65.38  Zn_pbe_v1.uspp.F.UPF  
  N      14.00674  N.pbe-n-radius_5.UPF
  C      12.01070  C.pbe-n-kjpaw_psl.1.0.0.UPF
  H       1.00794  H.pbe-rrkjus_psl.1.0.0.UPF

CELL_PARAMETERS (angstrom) 
       10.4574394226         0.0000000000         0.0000000000
       -5.2287197113         9.0564081985         0.0000000000
        0.0000000000         0.0000000000        23.7463226318

ATOMIC_POSITIONS (angstrom)
Zn               0.0000000000        1.5094010000        1.2182900000    0   0   0
Zn               5.2287200000        1.5094010000        1.2182900000    0   0   0
Zn               0.0004922780        1.5128574880        5.9666177386
Zn               5.2333622645        1.5101240668        5.9531006208
Zn              -1.3071800000        3.7735030000        1.2182900000    0   0   0
Zn               3.9215400000        3.7735030000        1.2182900000    0   0   0
Zn              -1.3048689558        3.7731262968        5.9569586576
Zn               3.9252575987        3.7736595186        5.9727714569
Zn              -2.6143600000        6.0376050000        1.2182900000    0   0   0
Zn               2.6143600000        6.0376050000        1.2182900000    0   0   0
Zn              -2.6125480724        6.0391325882        5.9520520001
Zn               2.6161602131        6.0419760021        5.9709915016
Zn              -3.9215400000        8.3017080000        1.2182900000    0   0   0
Zn               1.3071800000        8.3017080000        1.2182900000    0   0   0
Zn              -3.9195224478        8.3027544231        5.9543577461
Zn               1.3091994081        8.3056269089        5.9520760394
Zn               2.6143600000        1.5094010000        1.2182900000    0   0   0
Zn               7.8430800000        1.5094010000        1.2182900000    0   0   0
Zn               2.6143045338        1.5078742707        5.9473494086
Zn               7.8455997439        1.5113716764        5.9548683774
Zn               1.3071800000        3.7735030000        1.2182900000    0   0   0
Zn               6.5359000000        3.7735030000        1.2182900000    0   0   0
Zn               1.3140158421        3.7803688041        5.9605992714
Zn               6.5409646929        3.7781636248        5.9501214926
Zn               0.0000000000        6.0376050000        1.2182900000    0   0   0
Zn               5.2287200000        6.0376050000        1.2182900000    0   0   0
Zn              -0.0017590777        6.0379257296        5.9553374708
Zn               5.2343495963        6.0406647392        5.9521796752
Zn              -1.3071800000        8.3017080000        1.2182900000    0   0   0
Zn               3.9215400000        8.3017080000        1.2182900000    0   0   0
Zn              -1.3028832816        8.3037981960        5.9500919015
Zn               3.9262153403        8.3045373498        5.9503956075
Zn               1.3070563250        0.7551214022        3.5879483458
Zn               6.5391294140        0.7573813906        3.5825268616
Zn               0.0022517285        3.0199578130        3.5851968629
Zn               5.2277312213        3.0198847324        3.5855868268
Zn              -1.3073682190        5.2831836162        3.5906087640
Zn               3.9235697426        5.2841371775        3.5876618727
Zn              -2.6146716150        7.5477466202        3.5830464270
Zn               2.6156906908        7.5465415200        3.5869460251
Zn               3.9205267952        0.7560675566        3.5821950645
Zn               9.1530978649        0.7566396061        3.5887682302
Zn               2.6157024615        3.0210794695        3.5890067201
Zn               7.8452700646        3.0208124639        3.5894615862
Zn               1.3090234063        5.2831726338        3.5905513037
Zn               6.5362504338        5.2835099437        3.5831117516
Zn               0.0003880548        7.5458888381        3.5844260899
Zn               5.2294267374        7.5472633861        3.5825589706
C                1.0653041892        3.4713677602       15.0360560514
C                0.3037195854        4.4178840881       11.4047942357
C                1.7855058851        2.5302057562       12.7963928941
C                1.0552859208        3.4816638501       10.6812812758
C                1.0440094695        3.4675268589       13.5286807505
C                1.7983467164        2.5333748903       11.4029879015
C                0.3003109414        4.4030935638       12.8010327989
N                1.0976168816        3.5139941409        9.2753086765
H                2.0884792551        3.6195821529       15.4141218412
H               -0.2892211543        5.1614225380       10.8674311819
H                2.3622747696        1.7698478298       13.3286386909
H                0.4396869321        4.2804146633       15.4363370659
H                1.3141683861        2.6199871673        8.8400513577
H                0.2766294256        3.9256049252        8.8367289801
H                2.3890765085        1.7889049043       10.8642981880
H               -0.3077529407        5.1368048548       13.3358735218
H                0.6987583981        2.5226039015       15.4577111499

K_POINTS automatic 
  3 3 1  0 0 0  

