&CONTROL
  calculation = 'relax'    
  restart_mode ='from_scratch' 
  prefix = '02_Zn101_ABN_topsite_upright'  
  outdir = './tmp'       
  pseudo_dir = '/home/yongsang/Research/PSID_server_room/qe/[00]QE/qepseudo/SSSP_1.3.0_PBE_efficiency' 
  tprnfor = .true.        
  tstress = .true.       
  verbosity = 'high'      
  etot_conv_thr = 1.0e-5  
  forc_conv_thr =  5.0e-4 
  max_seconds   =  1.72800e+06
  nstep         = 500          
/

&SYSTEM
  ibrav = 0           
  nat = 63       
  ntyp = 4
  ecutwfc = 40.0
  ecutrho = 280.0    
  occupations = 'smearing'
  smearing = 'mv'     
  nosym = .TRUE.
  degauss = 0.02      
  vdw_corr='grimme-d3'
/

&ELECTRONS
  conv_thr = 1e-6        
  electron_maxstep = 200
  mixing_beta = 0.4   
  diagonalization = 'david'  
  startingwfc = "atomic+random"
  startingpot = "atomic"
/

&IONS
  ion_dynamics = 'bfgs' 
/

&CELL
  cell_dofree = 'all'   
/

ATOMIC_SPECIES
  Zn  65.38  Zn_pbe_v1.uspp.F.UPF  
  N      14.00674  N.pbe-n-radius_5.UPF
  C      12.01070  C.pbe-n-kjpaw_psl.1.0.0.UPF
  H       1.00794  H.pbe-rrkjus_psl.1.0.0.UPF

CELL_PARAMETERS (angstrom) 
       11.0603027344         0.0000000000         0.0000000000
       -2.4718588623        10.1610999917         0.0000000000
      -46.4560228483       -11.3012106837        22.2132348689
        
ATOMIC_POSITIONS (angstrom)
Zn              -1.0735560000        1.0841420000        1.1977640000    0   0   0
Zn              -2.3094850000        6.1646920000        1.1977640000    0   0   0
Zn              -4.1693227424        0.3379576887        4.3950018339
Zn              -5.3992560243        5.4186286370        4.3997722148
Zn              -8.0892562941       -0.6370646191        5.8130918268
Zn              -9.3153688153        4.4461916111        5.7444368981
Zn              -1.6915200000        3.6244170000        1.1977640000    0   0   0
Zn              -2.9274500000        8.7049670000        1.1977640000    0   0   0
Zn              -4.7823956279        2.8774082498        4.4031762749
Zn              -6.0188230345        7.9615259884        4.3940103731
Zn              -8.6995006993        1.9083943681        5.8193955600
Zn              -9.9339491936        6.9859694920        5.8114631756
Zn               4.4565960000        1.0841420000        1.1977640000    0   0   0
Zn               3.2206660000        6.1646920000        1.1977640000    0   0   0
Zn               0.4406206114        0.1192900085        3.4700406088
Zn              -0.7942728436        5.2007423092        3.4685895922
Zn              -2.0022194659       -0.4654581003        5.6884426354
Zn              -3.2342354812        4.6127160559        5.6934206718
Zn               3.8386310000        3.6244170000        1.1977640000    0   0   0
Zn               2.6027020000        8.7049670000        1.1977640000    0   0   0
Zn              -0.1811084129        2.6588677553        3.4630974620
Zn              -1.4134091664        7.7415594166        3.4735183984
Zn              -2.6170315027        2.0721311085        5.6928736635
Zn              -3.8550042037        7.1532783518        5.6910046596
Zn               1.6915200000        0.4114910000        0.8555450000    0   0   0
Zn               0.4555910000        5.4920410000        0.8555450000    0   0   0
Zn              -2.2220385100       -0.5341433787        2.8748135281
Zn              -3.4577398031        4.5443117091        2.8703061211
Zn              -5.9937731558       -1.4563967236        4.3757034847
Zn              -7.2219207400        3.6217374742        4.3475152493
Zn               1.0735560000        2.9517660000        0.8555450000    0   0   0
Zn              -0.1623740000        8.0323160000        0.8555450000    0   0   0
Zn              -2.8412127525        2.0053291383        2.8737467552
Zn              -4.0737293853        7.0846038737        2.8719955612
Zn              -6.6144259812        1.0826538396        4.3756509930
Zn              -7.8409666733        6.1691642970        4.3520289162
Zn               7.2216720000        0.4114910000        0.8555450000    0   0   0
Zn               5.9857420000        5.4920410000        0.8555450000    0   0   0
Zn               3.0283060693       -0.6059111998        2.9223936328
Zn               1.7961902285        4.4762685651        2.9042794815
Zn               0.4846886704       -1.1959012899        5.8385673060
Zn              -0.7451582053        3.8809327084        5.8285452212
Zn               6.6037070000        2.9517660000        0.8555450000    0   0   0
Zn               5.3677780000        8.0323160000        0.8555450000    0   0   0
Zn               2.4048363788        1.9301833799        2.9230230452
Zn               1.1711547669        7.0172662955        2.9241945046
Zn              -0.1247792967        1.3453181206        5.8371866649
Zn              -1.3596367668        6.4239452705        5.8379342969
C              -10.7339711400        4.8366078429       14.5436532582
C              -10.5113178805        4.7440378006       13.1407607499
C              -10.7246061852        5.8579179007       12.3052151037
C              -10.0900100596        3.5320868279       12.5600639450
C              -10.5282002125        5.7620562455       10.9371082018
C               -9.8942599869        3.4358409013       11.1919240825
C              -10.1164394892        4.5467154883       10.3502992613
N              -10.9192165323        4.9121499308       15.6943539394
N               -9.9069841575        4.4570232913        8.9930640962
H               -9.8743624280        3.5366631450        8.5657142722
H              -10.3190080995        5.1612776126        8.3866562479
H               -9.9189650958        2.6646860685       13.1977542695
H              -11.0459572118        6.8022528981       12.7441983434
H               -9.5638510091        2.4914202687       10.7563840860
H              -10.6954402503        6.6329740277       10.3012698226

K_POINTS automatic 
  3 3 1  0 0 0  

